"TIME", "PRESSURE1", "VELOCITY_X1", "VELOCITY_Y1", "VELOCITY_Z1", "DISPLACEMENT_X1", "DISPLACEMENT_Y1", "STRESS_XX", "STRESS_YY", "STRESS_ZZ"
0.000000000000e+00, 5.943829323211e+06, 0.000000000000e+00, 0.000000000000e+00, 0.000000000000e+00, 0.000000000000e+00, 0.000000000000e+00, -1.186806795280e+06, -8.703581695712e+06, -1.186846618919e+06
8.640000000000e+03, 5.943886958070e+06, -2.275185138008e-18, -7.459697129282e-18, 0.000000000000e+00, 4.645030725438e-07, -8.526476406597e-02, -1.781383410662e+06, -1.306347838103e+07, -1.781383415003e+06
