"TIME", "PRESSURE1", "VELOCITY_X1", "VELOCITY_Y1", "VELOCITY_Z1", "DISPLACEMENT_X1", "DISPLACEMENT_Y1", "STRESS_XX", "STRESS_YY", "STRESS_ZZ"
0.000000000000e+00, 3.000000000000e+06, 0.000000000000e+00, 0.000000000000e+00, 0.000000000000e+00, 0.000000000000e+00, 0.000000000000e+00, -5.983503565783e+05, -4.387243392725e+06, -5.982712499163e+05
8.640000000000e+03, 3.000000000000e+06, -2.068991307169e-20, 1.443879227736e-17, 0.000000000000e+00, 0.000000000000e+00, -1.280477222186e-01, -1.192805773240e+06, -8.747242284638e+06, -1.192805766945e+06
