<?xml version="1.0"?>
<!-- Time step: 1 | Time: 8.640000000000e+03 -->
<VTKFile type="UnstructuredGrid" version="0.1" byte_order="LittleEndian">
  <UnstructuredGrid>
    <Piece NumberOfPoints="4239" NumberOfCells="8285">
      <Points>
        <DataArray type="Float64" NumberOfComponents="3" format="ascii">
          0.000000000000e+00 0.000000000000e+00 -3.000000000000e+02
          0.000000000000e+00 0.000000000000e+00 -3.200000033858e+02
          0.000000000000e+00 0.000000000000e+00 -3.400000067716e+02
          0.000000000000e+00 0.000000000000e+00 -3.600000101574e+02
          0.000000000000e+00 0.000000000000e+00 -3.800000135432e+02
          0.000000000000e+00 0.000000000000e+00 -4.000000169290e+02
          0.000000000000e+00 0.000000000000e+00 -4.200000203148e+02
          0.000000000000e+00 0.000000000000e+00 -4.400000237006e+02
          0.000000000000e+00 0.000000000000e+00 -4.600000270864e+02
          0.000000000000e+00 0.000000000000e+00 -4.800000304722e+02
          0.000000000000e+00 0.000000000000e+00 -5.000000338580e+02
          1.912732711206e+01 0.000000000000e+00 -5.000000671490e+02
          3.825465422413e+01 0.000000000000e+00 -5.000001004400e+02
          5.738198133619e+01 0.000000000000e+00 -5.000001337310e+02
          7.650930844825e+01 0.000000000000e+00 -5.000001670220e+02
          9.563663556031e+01 0.000000000000e+00 -5.000002003130e+02
          1.147639626724e+02 0.000000000000e+00 -5.000002336040e+02
          1.338912897844e+02 0.000000000000e+00 -5.000002668950e+02
          1.530186168965e+02 0.000000000000e+00 -5.000003001860e+02
          1.721459440086e+02 0.000000000000e+00 -5.000003334770e+02
          1.912732711206e+02 0.000000000000e+00 -5.000003667679e+02
          2.104005982327e+02 0.000000000000e+00 -5.000004000589e+02
          2.295279253448e+02 0.000000000000e+00 -5.000004333499e+02
          2.486552524568e+02 0.000000000000e+00 -5.000004666409e+02
          2.677825795689e+02 0.000000000000e+00 -5.000004999319e+02
          2.869099066809e+02 0.000000000000e+00 -5.000005332229e+02
          3.060372337930e+02 0.000000000000e+00 -5.000005665139e+02
          3.251645609051e+02 0.000000000000e+00 -5.000005998049e+02
          3.286911500212e+02 0.000000000000e+00 -4.800002834446e+02
          3.322177391373e+02 0.000000000000e+00 -4.599999670842e+02
          3.357443282534e+02 0.000000000000e+00 -4.399996507239e+02
          3.392709173695e+02 0.000000000000e+00 -4.199993343636e+02
          3.427975064856e+02 0.000000000000e+00 -3.999990180032e+02
          3.633680000000e+02 0.000000000000e+00 -4.000000000000e+02
          3.601600320156e+02 0.000000000000e+00 -4.182447086488e+02
          3.569520640312e+02 0.000000000000e+00 -4.364894172977e+02
          3.537440960467e+02 0.000000000000e+00 -4.547341259465e+02
          3.505361280623e+02 0.000000000000e+00 -4.729788345954e+02
          3.473281600779e+02 0.000000000000e+00 -4.912235432442e+02
          3.441201920935e+02 0.000000000000e+00 -5.094682518931e+02
          3.409122241091e+02 0.000000000000e+00 -5.277129605419e+02
          3.377042561247e+02 0.000000000000e+00 -5.459576691908e+02
          3.344962881402e+02 0.000000000000e+00 -5.642023778396e+02
          3.312883201558e+02 0.000000000000e+00 -5.824470864885e+02
          3.280803521714e+02 0.000000000000e+00 -6.006917951373e+02
          3.471443404324e+02 0.000000000000e+00 -6.006974714707e+02
          3.662083286933e+02 0.000000000000e+00 -6.007031478041e+02
          3.852723169543e+02 0.000000000000e+00 -6.007088241375e+02
          4.043363052152e+02 0.000000000000e+00 -6.007145004709e+02
          4.234002934762e+02 0.000000000000e+00 -6.007201768043e+02
          4.424642817371e+02 0.000000000000e+00 -6.007258531377e+02
          4.615282699981e+02 0.000000000000e+00 -6.007315294711e+02
          4.805922582590e+02 0.000000000000e+00 -6.007372058045e+02
          4.996562465200e+02 0.000000000000e+00 -6.007428821379e+02
          5.187202347809e+02 0.000000000000e+00 -6.007485584713e+02
          5.377842230419e+02 0.000000000000e+00 -6.007542348047e+02
          5.568482113029e+02 0.000000000000e+00 -6.007599111382e+02
          5.759121995638e+02 0.000000000000e+00 -6.007655874716e+02
          5.949761878248e+02 0.000000000000e+00 -6.007712638050e+02
          6.140401760857e+02 0.000000000000e+00 -6.007769401384e+02
          6.331041643467e+02 0.000000000000e+00 -6.007826164718e+02
          6.521681526076e+02 0.000000000000e+00 -6.007882928052e+02
          6.712321408686e+02 0.000000000000e+00 -6.007939691386e+02
          6.902961291295e+02 0.000000000000e+00 -6.007996454720e+02
          7.093601173905e+02 0.000000000000e+00 -6.008053218054e+02
          7.284241056514e+02 0.000000000000e+00 -6.008109981388e+02
          7.474880939124e+02 0.000000000000e+00 -6.008166744722e+02
          7.665520821733e+02 0.000000000000e+00 -6.008223508056e+02
          7.856160704343e+02 0.000000000000e+00 -6.008280271390e+02
          8.046800586952e+02 0.000000000000e+00 -6.008337034724e+02
          8.237440469562e+02 0.000000000000e+00 -6.008393798058e+02
          8.428080352171e+02 0.000000000000e+00 -6.008450561392e+02
          8.618720234781e+02 0.000000000000e+00 -6.008507324726e+02
          8.809360117390e+02 0.000000000000e+00 -6.008564088060e+02
          9.000000000000e+02 0.000000000000e+00 -6.008620851394e+02
          9.000000000000e+02 0.000000000000e+00 -5.820582048182e+02
          9.000000000000e+02 0.000000000000e+00 -5.632543244970e+02
          9.000000000000e+02 0.000000000000e+00 -5.444504441758e+02
          9.000000000000e+02 0.000000000000e+00 -5.256465638546e+02
          9.000000000000e+02 0.000000000000e+00 -5.068426835333e+02
          9.000000000000e+02 0.000000000000e+00 -4.880388032121e+02
          9.000000000000e+02 0.000000000000e+00 -4.692349228909e+02
          9.000000000000e+02 0.000000000000e+00 -4.504310425697e+02
          9.000000000000e+02 0.000000000000e+00 -4.316271622485e+02
          9.000000000000e+02 0.000000000000e+00 -4.128232819273e+02
          9.000000000000e+02 0.000000000000e+00 -3.940194016061e+02
          9.000000000000e+02 0.000000000000e+00 -3.752155212849e+02
          9.000000000000e+02 0.000000000000e+00 -3.564116409636e+02
          9.000000000000e+02 0.000000000000e+00 -3.376077606424e+02
          9.000000000000e+02 0.000000000000e+00 -3.188038803212e+02
          9.000000000000e+02 0.000000000000e+00 -3.000000000000e+02
          8.808510638298e+02 0.000000000000e+00 -3.000000000000e+02
          8.617021276596e+02 0.000000000000e+00 -3.000000000000e+02
          8.425531914894e+02 0.000000000000e+00 -3.000000000000e+02
          8.234042553191e+02 0.000000000000e+00 -3.000000000000e+02
          8.042553191489e+02 0.000000000000e+00 -3.000000000000e+02
          7.851063829787e+02 0.000000000000e+00 -3.000000000000e+02
          7.659574468085e+02 0.000000000000e+00 -3.000000000000e+02
          7.468085106383e+02 0.000000000000e+00 -3.000000000000e+02
          7.276595744681e+02 0.000000000000e+00 -3.000000000000e+02
          7.085106382979e+02 0.000000000000e+00 -3.000000000000e+02
          6.893617021277e+02 0.000000000000e+00 -3.000000000000e+02
          6.702127659574e+02 0.000000000000e+00 -3.000000000000e+02
          6.510638297872e+02 0.000000000000e+00 -3.000000000000e+02
          6.319148936170e+02 0.000000000000e+00 -3.000000000000e+02
          6.127659574468e+02 0.000000000000e+00 -3.000000000000e+02
          5.936170212766e+02 0.000000000000e+00 -3.000000000000e+02
          5.744680851064e+02 0.000000000000e+00 -3.000000000000e+02
          5.553191489362e+02 0.000000000000e+00 -3.000000000000e+02
          5.361702127660e+02 0.000000000000e+00 -3.000000000000e+02
          5.170212765957e+02 0.000000000000e+00 -3.000000000000e+02
          4.978723404255e+02 0.000000000000e+00 -3.000000000000e+02
          4.787234042553e+02 0.000000000000e+00 -3.000000000000e+02
          4.595744680851e+02 0.000000000000e+00 -3.000000000000e+02
          4.404255319149e+02 0.000000000000e+00 -3.000000000000e+02
          4.212765957447e+02 0.000000000000e+00 -3.000000000000e+02
          4.021276595745e+02 0.000000000000e+00 -3.000000000000e+02
          3.829787234043e+02 0.000000000000e+00 -3.000000000000e+02
          3.638297872340e+02 0.000000000000e+00 -3.000000000000e+02
          3.446808510638e+02 0.000000000000e+00 -3.000000000000e+02
          3.255319148936e+02 0.000000000000e+00 -3.000000000000e+02
          3.063829787234e+02 0.000000000000e+00 -3.000000000000e+02
          2.872340425532e+02 0.000000000000e+00 -3.000000000000e+02
          2.680851063830e+02 0.000000000000e+00 -3.000000000000e+02
          2.489361702128e+02 0.000000000000e+00 -3.000000000000e+02
          2.297872340426e+02 0.000000000000e+00 -3.000000000000e+02
          2.106382978723e+02 0.000000000000e+00 -3.000000000000e+02
          1.914893617021e+02 0.000000000000e+00 -3.000000000000e+02
          1.723404255319e+02 0.000000000000e+00 -3.000000000000e+02
          1.531914893617e+02 0.000000000000e+00 -3.000000000000e+02
          1.340425531915e+02 0.000000000000e+00 -3.000000000000e+02
          1.148936170213e+02 0.000000000000e+00 -3.000000000000e+02
          9.574468085106e+01 0.000000000000e+00 -3.000000000000e+02
          7.659574468085e+01 0.000000000000e+00 -3.000000000000e+02
          5.744680851064e+01 0.000000000000e+00 -3.000000000000e+02
          3.829787234043e+01 0.000000000000e+00 -3.000000000000e+02
          1.914893617021e+01 0.000000000000e+00 -3.000000000000e+02
          8.875310861917e+02 0.000000000000e+00 -5.885021893492e+02
          1.244858699708e+01 0.000000000000e+00 -3.126391296399e+02
          8.873857506203e+02 0.000000000000e+00 -3.123845169440e+02
          1.262677308526e+01 0.000000000000e+00 -4.869517013229e+02
          3.123565098502e+02 0.000000000000e+00 -4.842228482756e+02
          2.827728038344e+01 0.000000000000e+00 -4.839399347102e+02
          2.763618817989e+01 0.000000000000e+00 -3.151185639296e+02
          8.843302705739e+02 0.000000000000e+00 -3.277558672009e+02
          8.846175161027e+02 0.000000000000e+00 -5.732059932206e+02
          8.721153655969e+02 0.000000000000e+00 -5.855252745149e+02
          8.717596242270e+02 0.000000000000e+00 -3.154137125443e+02
          2.956912642929e+02 0.000000000000e+00 -4.851195367390e+02
          1.540477322471e+01 0.000000000000e+00 -3.281146816598e+02
          1.574842674274e+01 0.000000000000e+00 -4.708090146792e+02
          3.158817385128e+02 0.000000000000e+00 -4.673277185029e+02
          3.027593411728e+02 0.000000000000e+00 -4.728142685554e+02
          2.778306138394e+02 0.000000000000e+00 -4.841894711353e+02
          2.883612269163e+02 0.000000000000e+00 -4.693948255243e+02
          2.587843600045e+02 0.000000000000e+00 -4.834940880577e+02
          2.393903401633e+02 0.000000000000e+00 -4.832153132377e+02
          2.200199252213e+02 0.000000000000e+00 -4.830720944864e+02
          2.006869611944e+02 0.000000000000e+00 -4.829522821597e+02
          1.813458825095e+02 0.000000000000e+00 -4.828534768438e+02
          1.619967777943e+02 0.000000000000e+00 -4.828569512703e+02
          1.427307073536e+02 0.000000000000e+00 -4.830529248630e+02
          1.236698199314e+02 0.000000000000e+00 -4.833872817982e+02
          1.048429360184e+02 0.000000000000e+00 -4.836560850690e+02
          8.612385187232e+01 0.000000000000e+00 -4.836505127677e+02
          6.720865464122e+01 0.000000000000e+00 -4.832591780631e+02
          4.763370118526e+01 0.000000000000e+00 -4.827074356277e+02
          3.177846807358e+02 0.000000000000e+00 -4.489079351969e+02
          3.016267354708e+02 0.000000000000e+00 -4.579130973463e+02
          3.191871614269e+02 0.000000000000e+00 -4.283068848974e+02
          3.253274489730e+02 0.000000000000e+00 -4.091503346602e+02
          3.631158460852e+01 0.000000000000e+00 -4.631645936614e+02
          4.643645852026e+01 0.000000000000e+00 -3.168185942511e+02
          6.622366235206e+01 0.000000000000e+00 -3.173530742935e+02
          8.595684843458e+01 0.000000000000e+00 -3.171982999323e+02
          1.053797955827e+02 0.000000000000e+00 -3.169148853456e+02
          1.245934482043e+02 0.000000000000e+00 -3.166858760965e+02
          1.437073211150e+02 0.000000000000e+00 -3.165451176095e+02
          1.627908656971e+02 0.000000000000e+00 -3.164828550936e+02
          1.818828285343e+02 0.000000000000e+00 -3.164754307625e+02
          2.009994910685e+02 0.000000000000e+00 -3.164953686214e+02
          2.201411156091e+02 0.000000000000e+00 -3.165207226866e+02
          2.393008085251e+02 0.000000000000e+00 -3.165395739255e+02
          2.584727805012e+02 0.000000000000e+00 -3.165467249910e+02
          2.776549540197e+02 0.000000000000e+00 -3.165371866585e+02
          2.968443141237e+02 0.000000000000e+00 -3.165049822607e+02
          3.160307021957e+02 0.000000000000e+00 -3.164524662415e+02
          3.351988787213e+02 0.000000000000e+00 -3.163996023464e+02
          3.543401220352e+02 0.000000000000e+00 -3.163745645198e+02
          3.734610690011e+02 0.000000000000e+00 -3.163903321268e+02
          3.925784541553e+02 0.000000000000e+00 -3.164350626627e+02
          4.117054631843e+02 0.000000000000e+00 -3.164861347011e+02
          4.308448535524e+02 0.000000000000e+00 -3.165277469613e+02
          4.499925900967e+02 0.000000000000e+00 -3.165553045327e+02
          4.691437336100e+02 0.000000000000e+00 -3.165708244129e+02
          4.882951436302e+02 0.000000000000e+00 -3.165783373068e+02
          5.074456577276e+02 0.000000000000e+00 -3.165815018750e+02
          5.265953158461e+02 0.000000000000e+00 -3.165827170653e+02
          5.457445137514e+02 0.000000000000e+00 -3.165831820339e+02
          5.648935412555e+02 0.000000000000e+00 -3.165833620429e+02
          5.840425065309e+02 0.000000000000e+00 -3.165834190178e+02
          6.031914355096e+02 0.000000000000e+00 -3.165834353951e+02
          6.223403719139e+02 0.000000000000e+00 -3.165834570256e+02
          6.414894071624e+02 0.000000000000e+00 -3.165834593325e+02
          6.606386839053e+02 0.000000000000e+00 -3.165833329505e+02
          6.797885037930e+02 0.000000000000e+00 -3.165828163007e+02
          6.989395449070e+02 0.000000000000e+00 -3.165810388087e+02
          7.180927031510e+02 0.000000000000e+00 -3.165753414402e+02
          7.372473104708e+02 0.000000000000e+00 -3.165595834299e+02
          7.563961767587e+02 0.000000000000e+00 -3.165237204628e+02
          7.755181928461e+02 0.000000000000e+00 -3.164594049250e+02
          7.945760168450e+02 0.000000000000e+00 -3.163767372852e+02
          8.135709959016e+02 0.000000000000e+00 -3.163565115700e+02
          8.326948977132e+02 0.000000000000e+00 -3.165489099001e+02
          8.523850375175e+02 0.000000000000e+00 -3.168344484714e+02
          8.829502027040e+02 0.000000000000e+00 -3.468401780608e+02
          8.833593426766e+02 0.000000000000e+00 -3.662519429634e+02
          8.837412986141e+02 0.000000000000e+00 -3.850898818615e+02
          8.839050679376e+02 0.000000000000e+00 -4.037392484314e+02
          8.839308241949e+02 0.000000000000e+00 -4.223983851134e+02
          8.839011289669e+02 0.000000000000e+00 -4.411213777736e+02
          8.838716875758e+02 0.000000000000e+00 -4.599060036334e+02
          8.838782392295e+02 0.000000000000e+00 -4.787182210406e+02
          8.839170964236e+02 0.000000000000e+00 -4.975000258457e+02
          8.839073011187e+02 0.000000000000e+00 -5.162211239453e+02
          8.836943272222e+02 0.000000000000e+00 -5.350138943769e+02
          8.833444685259e+02 0.000000000000e+00 -5.542750067087e+02
          8.530201647844e+02 0.000000000000e+00 -5.841108936181e+02
          8.335446080364e+02 0.000000000000e+00 -5.842747406173e+02
          8.144886060191e+02 0.000000000000e+00 -5.842821305795e+02
          7.954355328065e+02 0.000000000000e+00 -5.841013472144e+02
          7.762592644876e+02 0.000000000000e+00 -5.839557137084e+02
          7.570366474970e+02 0.000000000000e+00 -5.839623257672e+02
          7.378705093149e+02 0.000000000000e+00 -5.840806422059e+02
          7.187905047422e+02 0.000000000000e+00 -5.842054250746e+02
          6.997596062620e+02 0.000000000000e+00 -5.842746786771e+02
          6.807313867518e+02 0.000000000000e+00 -5.842894875740e+02
          6.616841305025e+02 0.000000000000e+00 -5.842763516266e+02
          6.426184294669e+02 0.000000000000e+00 -5.842568781012e+02
          6.235429421803e+02 0.000000000000e+00 -5.842413532061e+02
          6.044653373704e+02 0.000000000000e+00 -5.842329893895e+02
          5.853900267603e+02 0.000000000000e+00 -5.842316575160e+02
          5.663193044084e+02 0.000000000000e+00 -5.842354658816e+02
          5.472553076959e+02 0.000000000000e+00 -5.842416308429e+02
          5.282006780939e+02 0.000000000000e+00 -5.842469969726e+02
          5.091561321555e+02 0.000000000000e+00 -5.842484227301e+02
          4.901180887745e+02 0.000000000000e+00 -5.842467883365e+02
          4.710884433170e+02 0.000000000000e+00 -5.842539388229e+02
          4.520925621537e+02 0.000000000000e+00 -5.842699646834e+02
          4.331527183727e+02 0.000000000000e+00 -5.842059915119e+02
          4.141591479976e+02 0.000000000000e+00 -5.838347428549e+02
          3.946800972910e+02 0.000000000000e+00 -5.829393371429e+02
          3.739104833397e+02 0.000000000000e+00 -5.816396156175e+02
          3.521794678225e+02 0.000000000000e+00 -5.815843688609e+02
          3.600225945613e+02 0.000000000000e+00 -5.597937390018e+02
          3.582974972882e+02 0.000000000000e+00 -5.369459355913e+02
          3.581921375091e+02 0.000000000000e+00 -5.187628470771e+02
          3.602451328839e+02 0.000000000000e+00 -5.021077614602e+02
          3.642109506790e+02 0.000000000000e+00 -4.848838481541e+02
          3.680157475061e+02 0.000000000000e+00 -4.664171425438e+02
          3.706651080419e+02 0.000000000000e+00 -4.475904555811e+02
          3.724834097681e+02 0.000000000000e+00 -4.294849101139e+02
          3.753420265257e+02 0.000000000000e+00 -4.111611387572e+02
          3.850813348473e+02 0.000000000000e+00 -5.640389690322e+02
          3.784545281237e+02 0.000000000000e+00 -5.440648604167e+02
          3.744461606003e+02 0.000000000000e+00 -5.252472006432e+02
          3.710566741088e+02 0.000000000000e+00 -5.109772562789e+02
          4.052972429619e+02 0.000000000000e+00 -5.665908831095e+02
          4.240730011629e+02 0.000000000000e+00 -5.677090661384e+02
          4.427295549540e+02 0.000000000000e+00 -5.678515479101e+02
          3.764581946837e+02 0.000000000000e+00 -4.972469353890e+02
          4.616110790723e+02 0.000000000000e+00 -5.677529130675e+02
          4.806116937348e+02 0.000000000000e+00 -5.677239422606e+02
          4.996148737083e+02 0.000000000000e+00 -5.677424119398e+02
          5.186140481363e+02 0.000000000000e+00 -5.677423279775e+02
          5.376366000149e+02 0.000000000000e+00 -5.677215315300e+02
          5.566884366697e+02 0.000000000000e+00 -5.676953181297e+02
          5.757621388673e+02 0.000000000000e+00 -5.676733537445e+02
          5.948502430273e+02 0.000000000000e+00 -5.676616997789e+02
          6.139473565164e+02 0.000000000000e+00 -5.676652295726e+02
          6.330461768642e+02 0.000000000000e+00 -5.676868103879e+02
          6.521324914554e+02 0.000000000000e+00 -5.677246567883e+02
          6.711839193204e+02 0.000000000000e+00 -5.677663023421e+02
          6.901799993466e+02 0.000000000000e+00 -5.677762468739e+02
          7.091335989931e+02 0.000000000000e+00 -5.676858053959e+02
          7.281318271325e+02 0.000000000000e+00 -5.674274150331e+02
          7.473196365552e+02 0.000000000000e+00 -5.670455169424e+02
          7.667549858387e+02 0.000000000000e+00 -5.667941383594e+02
          7.862486540558e+02 0.000000000000e+00 -5.669711389112e+02
          8.054545600916e+02 0.000000000000e+00 -5.675332136883e+02
          8.242189423850e+02 0.000000000000e+00 -5.679808280861e+02
          8.431140085863e+02 0.000000000000e+00 -5.675292242904e+02
          8.647540242036e+02 0.000000000000e+00 -5.656231872670e+02
          1.828501377954e+01 0.000000000000e+00 -3.477648725606e+02
          1.916987998450e+01 0.000000000000e+00 -3.691306140167e+02
          1.819746692075e+01 0.000000000000e+00 -3.902260011509e+02
          1.744725538313e+01 0.000000000000e+00 -4.104021835111e+02
          1.723414455508e+01 0.000000000000e+00 -4.303633509926e+02
          1.730402339070e+01 0.000000000000e+00 -4.507838930490e+02
          3.396906862354e+01 0.000000000000e+00 -3.332098795755e+02
          5.489279664341e+01 0.000000000000e+00 -3.353280645899e+02
          7.585513369910e+01 0.000000000000e+00 -3.348955209714e+02
          9.581716568053e+01 0.000000000000e+00 -3.341608010361e+02
          1.152052736386e+02 0.000000000000e+00 -3.335689992558e+02
          1.343237432238e+02 0.000000000000e+00 -3.331756358867e+02
          1.533368613289e+02 0.000000000000e+00 -3.329622565676e+02
          1.723396891564e+02 0.000000000000e+00 -3.328945491063e+02
          1.913856460588e+02 0.000000000000e+00 -3.329187517321e+02
          2.104904312555e+02 0.000000000000e+00 -3.329775854946e+02
          2.296449645107e+02 0.000000000000e+00 -3.330314627130e+02
          2.488359877181e+02 0.000000000000e+00 -3.330603440838e+02
          2.680589613189e+02 0.000000000000e+00 -3.330507457327e+02
          2.873124862322e+02 0.000000000000e+00 -3.329834470936e+02
          3.065774831400e+02 0.000000000000e+00 -3.328456079648e+02
          3.258088775557e+02 0.000000000000e+00 -3.326706456154e+02
          3.449633446006e+02 0.000000000000e+00 -3.325456193315e+02
          3.640403003261e+02 0.000000000000e+00 -3.325434911637e+02
          3.830864996100e+02 0.000000000000e+00 -3.326558903763e+02
          4.021540520344e+02 0.000000000000e+00 -3.328132961393e+02
          4.212622397285e+02 0.000000000000e+00 -3.329535799573e+02
          4.404014055164e+02 0.000000000000e+00 -3.330527596339e+02
          4.595552695544e+02 0.000000000000e+00 -3.331124456779e+02
          4.787122714836e+02 0.000000000000e+00 -3.331434572880e+02
          4.978671066842e+02 0.000000000000e+00 -3.331575511905e+02
          5.170190367629e+02 0.000000000000e+00 -3.331633906724e+02
          5.361691788754e+02 0.000000000000e+00 -3.331657513413e+02
          5.553186026653e+02 0.000000000000e+00 -3.331666810907e+02
          5.744677690076e+02 0.000000000000e+00 -3.331669508041e+02
          5.936167585343e+02 0.000000000000e+00 -3.331669441985e+02
          6.127656471072e+02 0.000000000000e+00 -3.331669355436e+02
          6.319147069700e+02 0.000000000000e+00 -3.331670310663e+02
          6.510644285850e+02 0.000000000000e+00 -3.331670950535e+02
          6.702155469563e+02 0.000000000000e+00 -3.331666617000e+02
          6.893690583870e+02 0.000000000000e+00 -3.331643222738e+02
          7.085259085283e+02 0.000000000000e+00 -3.331564195983e+02
          7.276861168514e+02 0.000000000000e+00 -3.331356023918e+02
          7.468455692556e+02 0.000000000000e+00 -3.330885968424e+02
          7.659848661001e+02 0.000000000000e+00 -3.329946228154e+02
          7.850491370520e+02 0.000000000000e+00 -3.328386659117e+02
          8.039043913726e+02 0.000000000000e+00 -3.326284189564e+02
          8.225500231602e+02 0.000000000000e+00 -3.326660732932e+02
          8.416950080815e+02 0.000000000000e+00 -3.335596448288e+02
          2.695677873727e+02 0.000000000000e+00 -4.670221158237e+02
          2.828911682857e+02 0.000000000000e+00 -4.491613263296e+02
          5.841046884496e+01 0.000000000000e+00 -4.658939081104e+02
          7.724460736590e+01 0.000000000000e+00 -4.673631329329e+02
          9.533681673342e+01 0.000000000000e+00 -4.677333469324e+02
          1.135324118010e+02 0.000000000000e+00 -4.673006194154e+02
          1.322290702352e+02 0.000000000000e+00 -4.664441782574e+02
          1.515214812506e+02 0.000000000000e+00 -4.657250745947e+02
          1.711465560451e+02 0.000000000000e+00 -4.655537714598e+02
          1.907598559607e+02 0.000000000000e+00 -4.657465870442e+02
          2.102823368678e+02 0.000000000000e+00 -4.659875171771e+02
          2.298328292350e+02 0.000000000000e+00 -4.661976636308e+02
          2.495706924275e+02 0.000000000000e+00 -4.664344562618e+02
          2.601666090920e+02 0.000000000000e+00 -4.493067134486e+02
          8.639199262985e+02 0.000000000000e+00 -3.355901161760e+02
          8.661583972389e+02 0.000000000000e+00 -3.575562603437e+02
          8.482085256227e+02 0.000000000000e+00 -3.513001727234e+02
          8.304371023202e+02 0.000000000000e+00 -3.485872631406e+02
          8.674000122249e+02 0.000000000000e+00 -3.765153482834e+02
          8.678806888272e+02 0.000000000000e+00 -3.948783837046e+02
          8.679581569857e+02 0.000000000000e+00 -4.132854091147e+02
          8.512036077399e+02 0.000000000000e+00 -3.690067295598e+02
          8.358851642906e+02 0.000000000000e+00 -3.636720212162e+02
          8.678790455892e+02 0.000000000000e+00 -4.318635153908e+02
          8.521665247382e+02 0.000000000000e+00 -3.864338158231e+02
          8.522103729213e+02 0.000000000000e+00 -4.042965653036e+02
          8.520106539658e+02 0.000000000000e+00 -4.226321943942e+02
          8.374812886598e+02 0.000000000000e+00 -3.787033493015e+02
          8.677701970865e+02 0.000000000000e+00 -4.506024528061e+02
          8.517467340995e+02 0.000000000000e+00 -4.412804102877e+02
          8.677255262593e+02 0.000000000000e+00 -4.694530395440e+02
          8.678093478647e+02 0.000000000000e+00 -4.883022706039e+02
          8.679727979618e+02 0.000000000000e+00 -5.069806097777e+02
          8.679311487462e+02 0.000000000000e+00 -5.254141368863e+02
          8.670534649909e+02 0.000000000000e+00 -5.441152266304e+02
          8.500952269842e+02 0.000000000000e+00 -5.506135386232e+02
          8.526058716837e+02 0.000000000000e+00 -5.337785031599e+02
          8.331943534109e+02 0.000000000000e+00 -5.525546692510e+02
          8.400348647111e+02 0.000000000000e+00 -5.400851429088e+02
          8.524819261930e+02 0.000000000000e+00 -5.164489598321e+02
          8.382231011784e+02 0.000000000000e+00 -5.260515064734e+02
          8.515374744745e+02 0.000000000000e+00 -4.601757275442e+02
          8.515459526168e+02 0.000000000000e+00 -4.792129558453e+02
          8.519061813265e+02 0.000000000000e+00 -4.981212883358e+02
          8.364157512941e+02 0.000000000000e+00 -5.084631400736e+02
          8.129782312079e+02 0.000000000000e+00 -3.484490491085e+02
          8.213030826829e+02 0.000000000000e+00 -3.620019438403e+02
          8.267080690985e+02 0.000000000000e+00 -3.725537434914e+02
          7.946525886350e+02 0.000000000000e+00 -3.491436700651e+02
          7.756086224209e+02 0.000000000000e+00 -3.494176113015e+02
          7.564639857183e+02 0.000000000000e+00 -3.495873583425e+02
          7.372957876735e+02 0.000000000000e+00 -3.496740740601e+02
          7.181281231992e+02 0.000000000000e+00 -3.497210485213e+02
          6.989616410961e+02 0.000000000000e+00 -3.497434857503e+02
          6.797991057989e+02 0.000000000000e+00 -3.497505670895e+02
          6.606423382051e+02 0.000000000000e+00 -3.497515220432e+02
          6.414899495185e+02 0.000000000000e+00 -3.497513196978e+02
          6.223398392627e+02 0.000000000000e+00 -3.497512124427e+02
          6.031906024446e+02 0.000000000000e+00 -3.497514049130e+02
          5.840413985426e+02 0.000000000000e+00 -3.497518329888e+02
          5.648918538496e+02 0.000000000000e+00 -3.497519806792e+02
          5.457419814900e+02 0.000000000000e+00 -3.497509718006e+02
          5.265915728478e+02 0.000000000000e+00 -3.497476403686e+02
          5.074391590612e+02 0.000000000000e+00 -3.497396858940e+02
          4.882816100692e+02 0.000000000000e+00 -3.497211583894e+02
          4.691163477643e+02 0.000000000000e+00 -3.496785574419e+02
          4.499471692486e+02 0.000000000000e+00 -3.495887495422e+02
          4.307904786497e+02 0.000000000000e+00 -3.494237677638e+02
          4.116772318706e+02 0.000000000000e+00 -3.491625316986e+02
          3.926519339935e+02 0.000000000000e+00 -3.488079964470e+02
          3.737327117843e+02 0.000000000000e+00 -3.484426434918e+02
          3.548354424515e+02 0.000000000000e+00 -3.482589931276e+02
          3.358051471325e+02 0.000000000000e+00 -3.484089896583e+02
          3.165634009241e+02 0.000000000000e+00 -3.488079213017e+02
          2.971767671901e+02 0.000000000000e+00 -3.492045785067e+02
          2.777763877018e+02 0.000000000000e+00 -3.494407920510e+02
          2.584426772295e+02 0.000000000000e+00 -3.495281221052e+02
          2.391825803889e+02 0.000000000000e+00 -3.495212260792e+02
          2.199863740498e+02 0.000000000000e+00 -3.494500701466e+02
          2.008650992876e+02 0.000000000000e+00 -3.493410731536e+02
          1.818427394094e+02 0.000000000000e+00 -3.492447269776e+02
          1.629224356952e+02 0.000000000000e+00 -3.492513165294e+02
          1.440484219182e+02 0.000000000000e+00 -3.494665088308e+02
          1.251132578090e+02 0.000000000000e+00 -3.499434303033e+02
          1.059863515786e+02 0.000000000000e+00 -3.507040397558e+02
          8.641168077958e+01 0.000000000000e+00 -3.518670379981e+02
          8.157068756113e+02 0.000000000000e+00 -5.516259929079e+02
          8.262209125857e+02 0.000000000000e+00 -5.374247643643e+02
          7.968351912239e+02 0.000000000000e+00 -5.500559799099e+02
          7.769329699556e+02 0.000000000000e+00 -5.491030382112e+02
          7.568463630449e+02 0.000000000000e+00 -5.493746558339e+02
          7.373041479081e+02 0.000000000000e+00 -5.502745576177e+02
          7.183237361669e+02 0.000000000000e+00 -5.509691388508e+02
          6.995272145234e+02 0.000000000000e+00 -5.512460301148e+02
          6.806540029014e+02 0.000000000000e+00 -5.512579849230e+02
          6.616516617316e+02 0.000000000000e+00 -5.511829175206e+02
          6.425623712995e+02 0.000000000000e+00 -5.511051374599e+02
          6.234352186953e+02 0.000000000000e+00 -5.510538382322e+02
          6.043025762507e+02 0.000000000000e+00 -5.510355011007e+02
          5.851808211326e+02 0.000000000000e+00 -5.510469366949e+02
          5.660790585915e+02 0.000000000000e+00 -5.510819484516e+02
          5.470090836969e+02 0.000000000000e+00 -5.511349175730e+02
          5.279910947884e+02 0.000000000000e+00 -5.511979784059e+02
          5.090440385869e+02 0.000000000000e+00 -5.512433356609e+02
          4.901298505421e+02 0.000000000000e+00 -5.512025535400e+02
          4.711126803688e+02 0.000000000000e+00 -5.510794974836e+02
          4.520423696275e+02 0.000000000000e+00 -5.512283453996e+02
          4.334069191245e+02 0.000000000000e+00 -5.517775925482e+02
          4.156753174173e+02 0.000000000000e+00 -5.517882218596e+02
          3.980786605595e+02 0.000000000000e+00 -5.490241030227e+02
          8.217893630331e+02 0.000000000000e+00 -5.201309720770e+02
          8.049869207058e+02 0.000000000000e+00 -3.657132348419e+02
          8.168148788556e+02 0.000000000000e+00 -3.731048454158e+02
          6.565039689830e+01 0.000000000000e+00 -3.536256318802e+02
          4.102305609256e+01 0.000000000000e+00 -3.561786871029e+02
          3.738571440216e+01 0.000000000000e+00 -3.806091732755e+02
          5.768755969682e+01 0.000000000000e+00 -3.736014983198e+02
          7.786131758596e+01 0.000000000000e+00 -3.699752003853e+02
          3.510795933804e+01 0.000000000000e+00 -4.011607303864e+02
          3.413160416070e+01 0.000000000000e+00 -4.205939004488e+02
          3.455132311564e+01 0.000000000000e+00 -4.403478472099e+02
          5.233483823020e+01 0.000000000000e+00 -4.476642762293e+02
          6.981900616738e+01 0.000000000000e+00 -4.512777013871e+02
          5.004975318645e+01 0.000000000000e+00 -4.294975150232e+02
          6.497662650724e+01 0.000000000000e+00 -4.358341718847e+02
          5.043930935829e+01 0.000000000000e+00 -4.117356074770e+02
          5.302037126951e+01 0.000000000000e+00 -3.933403113123e+02
          6.394906877383e+01 0.000000000000e+00 -4.208012529152e+02
          6.639825946447e+01 0.000000000000e+00 -4.050154850086e+02
          7.108429621671e+01 0.000000000000e+00 -3.879471617301e+02
          9.716303160537e+01 0.000000000000e+00 -3.680119238502e+02
          8.912532379043e+01 0.000000000000e+00 -3.849650929836e+02
          1.161544909223e+02 0.000000000000e+00 -3.668985334837e+02
          1.074803871547e+02 0.000000000000e+00 -3.839122909482e+02
          1.350095464407e+02 0.000000000000e+00 -3.660819711762e+02
          1.537212236459e+02 0.000000000000e+00 -3.655740020628e+02
          1.263093275762e+02 0.000000000000e+00 -3.830251578748e+02
          1.449206861187e+02 0.000000000000e+00 -3.818459799819e+02
          8.665306719332e+01 0.000000000000e+00 -4.525133230464e+02
          7.943174639918e+01 0.000000000000e+00 -4.385229006222e+02
          7.442179348781e+01 0.000000000000e+00 -4.273224546781e+02
          7.752303322880e+01 0.000000000000e+00 -4.154723620872e+02
          8.243112057296e+01 0.000000000000e+00 -4.008997684996e+02
          1.036811789321e+02 0.000000000000e+00 -4.521164685738e+02
          1.214536476855e+02 0.000000000000e+00 -4.506768179708e+02
          1.404518273350e+02 0.000000000000e+00 -4.487019535475e+02
          1.605423087233e+02 0.000000000000e+00 -4.478577320851e+02
          1.806860632264e+02 0.000000000000e+00 -4.483243176411e+02
          2.004131469041e+02 0.000000000000e+00 -4.487833006685e+02
          2.200324569393e+02 0.000000000000e+00 -4.491011218730e+02
          2.398129464830e+02 0.000000000000e+00 -4.492700156295e+02
          1.724355746352e+02 0.000000000000e+00 -3.654714476889e+02
          1.632419997049e+02 0.000000000000e+00 -3.815112637581e+02
          1.913101367866e+02 0.000000000000e+00 -3.656046957186e+02
          2.103589559066e+02 0.000000000000e+00 -3.657907305806e+02
          2.295342348219e+02 0.000000000000e+00 -3.659311371563e+02
          2.488045811137e+02 0.000000000000e+00 -3.659809696921e+02
          2.681864580049e+02 0.000000000000e+00 -3.659106555869e+02
          2.877416720577e+02 0.000000000000e+00 -3.656605610017e+02
          3.074275737261e+02 0.000000000000e+00 -3.650376663975e+02
          3.269666579641e+02 0.000000000000e+00 -3.640721789691e+02
          3.460613314299e+02 0.000000000000e+00 -3.633682603429e+02
          3.647108591835e+02 0.000000000000e+00 -3.634649779678e+02
          3.832763418150e+02 0.000000000000e+00 -3.641840509862e+02
          4.020944666659e+02 0.000000000000e+00 -3.649647125402e+02
          4.211465323486e+02 0.000000000000e+00 -3.655423888920e+02
          4.403008221285e+02 0.000000000000e+00 -3.659275688987e+02
          4.594930490646e+02 0.000000000000e+00 -3.661480468975e+02
          4.786811896533e+02 0.000000000000e+00 -3.662561600925e+02
          4.978512159378e+02 0.000000000000e+00 -3.663052729416e+02
          5.170081336195e+02 0.000000000000e+00 -3.663283578908e+02
          5.361602220576e+02 0.000000000000e+00 -3.663393890169e+02
          5.553116724190e+02 0.000000000000e+00 -3.663435015269e+02
          5.744630827525e+02 0.000000000000e+00 -3.663435325492e+02
          5.936140962117e+02 0.000000000000e+00 -3.663419147435e+02
          6.127649739264e+02 0.000000000000e+00 -3.663402310149e+02
          6.319164359459e+02 0.000000000000e+00 -3.663387693184e+02
          6.510693754913e+02 0.000000000000e+00 -3.663379070096e+02
          6.702268490445e+02 0.000000000000e+00 -3.663394406655e+02
          6.893952520265e+02 0.000000000000e+00 -3.663411602578e+02
          7.085752498332e+02 0.000000000000e+00 -3.663260355965e+02
          7.277519737138e+02 0.000000000000e+00 -3.662732686386e+02
          7.469219577592e+02 0.000000000000e+00 -3.661932951304e+02
          7.661301203998e+02 0.000000000000e+00 -3.660856210394e+02
          7.853466294654e+02 0.000000000000e+00 -3.657864196131e+02
          1.818314520696e+02 0.000000000000e+00 -3.817291050609e+02
          9.453954434983e+01 0.000000000000e+00 -4.382793817844e+02
          8.635340137081e+01 0.000000000000e+00 -4.260896919050e+02
          9.173474273288e+01 0.000000000000e+00 -4.128903586832e+02
          9.882487157103e+01 0.000000000000e+00 -3.992808925664e+02
          1.174673502569e+02 0.000000000000e+00 -4.016107206278e+02
          1.370428530487e+02 0.000000000000e+00 -3.981402871869e+02
          1.544536931280e+02 0.000000000000e+00 -3.970337868380e+02
          1.723539222815e+02 0.000000000000e+00 -3.976098916888e+02
          2.007651218864e+02 0.000000000000e+00 -3.820489496988e+02
          2.199126104841e+02 0.000000000000e+00 -3.822975444466e+02
          2.391897190156e+02 0.000000000000e+00 -3.824108740692e+02
          2.585751155742e+02 0.000000000000e+00 -3.823600598824e+02
          2.781469789671e+02 0.000000000000e+00 -3.821406296380e+02
          2.981776989802e+02 0.000000000000e+00 -3.817195876530e+02
          3.183952770313e+02 0.000000000000e+00 -3.801061564988e+02
          3.379466024435e+02 0.000000000000e+00 -3.779531059404e+02
          3.564024686488e+02 0.000000000000e+00 -3.772726747887e+02
          3.741457271567e+02 0.000000000000e+00 -3.785306550507e+02
          3.924120553880e+02 0.000000000000e+00 -3.802751259449e+02
          4.114181498999e+02 0.000000000000e+00 -3.813528759671e+02
          4.305694868600e+02 0.000000000000e+00 -3.821163290868e+02
          4.498122384632e+02 0.000000000000e+00 -3.825692213636e+02
          4.690551712135e+02 0.000000000000e+00 -3.827825930250e+02
          4.882533359615e+02 0.000000000000e+00 -3.828736497751e+02
          5.074173137440e+02 0.000000000000e+00 -3.829186285790e+02
          5.265700391190e+02 0.000000000000e+00 -3.829436086560e+02
          5.457231853221e+02 0.000000000000e+00 -3.829547053734e+02
          5.648784638073e+02 0.000000000000e+00 -3.829557730449e+02
          5.840346566657e+02 0.000000000000e+00 -3.829516364675e+02
          6.031915748219e+02 0.000000000000e+00 -3.829460864450e+02
          6.223495828906e+02 0.000000000000e+00 -3.829397611965e+02
          6.415067639262e+02 0.000000000000e+00 -3.829319364063e+02
          6.606611253307e+02 0.000000000000e+00 -3.829277056645e+02
          6.798228549247e+02 0.000000000000e+00 -3.829389348775e+02
          6.990157021398e+02 0.000000000000e+00 -3.829567260299e+02
          7.182272176437e+02 0.000000000000e+00 -3.829134735714e+02
          7.373804435191e+02 0.000000000000e+00 -3.827732468809e+02
          7.565006197815e+02 0.000000000000e+00 -3.826962895460e+02
          7.759004815445e+02 0.000000000000e+00 -3.827587925988e+02
          1.006086537509e+02 0.000000000000e+00 -4.242395623123e+02
          1.048437103169e+02 0.000000000000e+00 -4.116484527334e+02
          1.911388220454e+02 0.000000000000e+00 -3.982186939321e+02
          8.368988565259e+02 0.000000000000e+00 -3.953038864867e+02
          8.363941413263e+02 0.000000000000e+00 -4.133428964745e+02
          8.358904528879e+02 0.000000000000e+00 -4.318649776006e+02
          8.353981745084e+02 0.000000000000e+00 -4.507449978097e+02
          8.220595426863e+02 0.000000000000e+00 -3.853401852514e+02
          8.350690308819e+02 0.000000000000e+00 -4.699939467126e+02
          8.353091817659e+02 0.000000000000e+00 -4.894422681254e+02
          8.189438793879e+02 0.000000000000e+00 -5.006792734025e+02
          1.106793146017e+02 0.000000000000e+00 -4.364613107142e+02
          1.156744446446e+02 0.000000000000e+00 -4.203887240409e+02
          1.323400919081e+02 0.000000000000e+00 -4.153182806205e+02
          1.469829494302e+02 0.000000000000e+00 -4.103459689905e+02
          1.624033721101e+02 0.000000000000e+00 -4.130158308050e+02
          1.282239064945e+02 0.000000000000e+00 -4.333061467055e+02
          1.487993368940e+02 0.000000000000e+00 -4.284291286788e+02
          1.707035502893e+02 0.000000000000e+00 -4.305593840771e+02
          1.812725781731e+02 0.000000000000e+00 -4.143117288597e+02
          1.906175601882e+02 0.000000000000e+00 -4.315005337521e+02
          2.005437440224e+02 0.000000000000e+00 -4.150190361020e+02
          2.102872298345e+02 0.000000000000e+00 -3.986489138755e+02
          2.102030843142e+02 0.000000000000e+00 -4.320190911560e+02
          2.298085287526e+02 0.000000000000e+00 -4.322683358620e+02
          2.199525673999e+02 0.000000000000e+00 -4.153981491503e+02
          2.296012347651e+02 0.000000000000e+00 -3.988678872627e+02
          2.496338199183e+02 0.000000000000e+00 -4.322173532160e+02
          2.394744616108e+02 0.000000000000e+00 -4.154923848112e+02
          2.490214250510e+02 0.000000000000e+00 -3.988503986216e+02
          2.684937439378e+02 0.000000000000e+00 -3.985753954039e+02
          2.590856901660e+02 0.000000000000e+00 -4.152113424218e+02
          2.697870597578e+02 0.000000000000e+00 -4.315662070034e+02
          2.784042254559e+02 0.000000000000e+00 -4.143721514786e+02
          2.881704440741e+02 0.000000000000e+00 -3.981976459396e+02
          3.096532136410e+02 0.000000000000e+00 -3.986509755580e+02
          3.305894595384e+02 0.000000000000e+00 -3.926278853544e+02
          3.495359336686e+02 0.000000000000e+00 -3.896885235313e+02
          3.661827922975e+02 0.000000000000e+00 -3.900588711529e+02
          3.819678988759e+02 0.000000000000e+00 -3.954090301789e+02
          4.015676248002e+02 0.000000000000e+00 -3.967969895816e+02
          4.206617599346e+02 0.000000000000e+00 -3.981392499921e+02
          4.399943022291e+02 0.000000000000e+00 -3.990105820872e+02
          4.593765067451e+02 0.000000000000e+00 -3.993709044978e+02
          4.786457557070e+02 0.000000000000e+00 -3.994816570736e+02
          4.978209037441e+02 0.000000000000e+00 -3.995385998037e+02
          5.169694364278e+02 0.000000000000e+00 -3.995829558517e+02
          5.361227454407e+02 0.000000000000e+00 -3.996079644660e+02
          5.552841221239e+02 0.000000000000e+00 -3.996128377110e+02
          5.744501212131e+02 0.000000000000e+00 -3.996050239682e+02
          5.936197355018e+02 0.000000000000e+00 -3.995924263441e+02
          6.127941301774e+02 0.000000000000e+00 -3.995774019812e+02
          6.319694823541e+02 0.000000000000e+00 -3.995556182700e+02
          6.511295533385e+02 0.000000000000e+00 -3.995262208887e+02
          6.702628785968e+02 0.000000000000e+00 -3.995161032728e+02
          6.894152598612e+02 0.000000000000e+00 -3.995753009371e+02
          7.086841841737e+02 0.000000000000e+00 -3.996640388569e+02
          7.279633616075e+02 0.000000000000e+00 -3.994854209713e+02
          7.468971770083e+02 0.000000000000e+00 -3.990416406113e+02
          7.657187293494e+02 0.000000000000e+00 -3.992667362572e+02
          2.964945388825e+02 0.000000000000e+00 -4.134148025790e+02
          2.888451011625e+02 0.000000000000e+00 -4.289229465195e+02
          3.022753770878e+02 0.000000000000e+00 -4.397381308791e+02
          3.034851747536e+02 0.000000000000e+00 -4.250947216606e+02
          3.108109498962e+02 0.000000000000e+00 -4.149396488626e+02
          3.717137663016e+02 0.000000000000e+00 -3.991737833519e+02
          3.923827706189e+02 0.000000000000e+00 -4.115833273439e+02
          3.852598200792e+02 0.000000000000e+00 -4.239759896120e+02
          3.864113794551e+02 0.000000000000e+00 -4.393974713232e+02
          3.862393600758e+02 0.000000000000e+00 -4.590307091946e+02
          3.825460411501e+02 0.000000000000e+00 -4.792889154595e+02
          4.104601685643e+02 0.000000000000e+00 -4.138349561987e+02
          3.995543007369e+02 0.000000000000e+00 -4.282415251116e+02
          4.298218476023e+02 0.000000000000e+00 -4.156351684023e+02
          4.495788440983e+02 0.000000000000e+00 -4.162317508484e+02
          4.690480595748e+02 0.000000000000e+00 -4.162104947323e+02
          4.882320085059e+02 0.000000000000e+00 -4.162089933016e+02
          5.073570515268e+02 0.000000000000e+00 -4.162757241838e+02
          5.265074870904e+02 0.000000000000e+00 -4.163287331128e+02
          5.456796595648e+02 0.000000000000e+00 -4.163439931915e+02
          5.648612432610e+02 0.000000000000e+00 -4.163326405181e+02
          5.840497352219e+02 0.000000000000e+00 -4.163098099243e+02
          6.032495716036e+02 0.000000000000e+00 -4.162829520597e+02
          6.224626915546e+02 0.000000000000e+00 -4.162460431450e+02
          6.416681805753e+02 0.000000000000e+00 -4.161815993560e+02
          6.607985584477e+02 0.000000000000e+00 -4.160878057887e+02
          6.798160619263e+02 0.000000000000e+00 -4.160729050175e+02
          6.989238238101e+02 0.000000000000e+00 -4.163362727307e+02
          7.185609388187e+02 0.000000000000e+00 -4.167479442041e+02
          7.379970698123e+02 0.000000000000e+00 -4.157857818675e+02
          7.557515019193e+02 0.000000000000e+00 -4.142323776608e+02
          8.085491619821e+02 0.000000000000e+00 -5.340400593803e+02
          8.025759338361e+02 0.000000000000e+00 -5.140795624445e+02
          7.883124576832e+02 0.000000000000e+00 -5.307924329030e+02
          7.667171056860e+02 0.000000000000e+00 -5.302837508037e+02
          7.460744054727e+02 0.000000000000e+00 -5.323790049588e+02
          7.270751225672e+02 0.000000000000e+00 -5.341253304570e+02
          7.086752036891e+02 0.000000000000e+00 -5.348077442250e+02
          6.901014483893e+02 0.000000000000e+00 -5.348050020114e+02
          6.712100204950e+02 0.000000000000e+00 -5.346433794316e+02
          6.521262536469e+02 0.000000000000e+00 -5.344925882040e+02
          6.329584027388e+02 0.000000000000e+00 -5.343891509240e+02
          6.137715579838e+02 0.000000000000e+00 -5.343403201100e+02
          5.945979208684e+02 0.000000000000e+00 -5.343394375351e+02
          5.754499108232e+02 0.000000000000e+00 -5.343779407458e+02
          5.563373794506e+02 0.000000000000e+00 -5.344513790847e+02
          5.372823041183e+02 0.000000000000e+00 -5.345618371765e+02
          5.183348818865e+02 0.000000000000e+00 -5.347042854817e+02
          4.995668885659e+02 0.000000000000e+00 -5.348007039562e+02
          4.808189831203e+02 0.000000000000e+00 -5.345382141248e+02
          4.614390745443e+02 0.000000000000e+00 -5.338966341724e+02
          4.419090033717e+02 0.000000000000e+00 -5.348147499376e+02
          4.239467164052e+02 0.000000000000e+00 -5.370246536340e+02
          4.091733386325e+02 0.000000000000e+00 -5.383404444302e+02
          3.947209447168e+02 0.000000000000e+00 -5.291325833444e+02
          3.858404560993e+02 0.000000000000e+00 -5.114171685132e+02
          7.947603544679e+02 0.000000000000e+00 -3.815583412320e+02
          8.090065771184e+02 0.000000000000e+00 -3.799466791172e+02
          7.868696283706e+02 0.000000000000e+00 -4.011146853410e+02
          7.722888898731e+02 0.000000000000e+00 -4.157442091808e+02
          3.946745745059e+02 0.000000000000e+00 -4.946968795496e+02
          4.035448648143e+02 0.000000000000e+00 -5.110751612063e+02
          4.133526590141e+02 0.000000000000e+00 -5.245367287471e+02
          4.300344974324e+02 0.000000000000e+00 -5.206293724563e+02
          4.185615194659e+02 0.000000000000e+00 -5.108478802516e+02
          4.139149430877e+02 0.000000000000e+00 -4.956234349039e+02
          7.783543967167e+02 0.000000000000e+00 -5.070028141515e+02
          7.538337855780e+02 0.000000000000e+00 -5.127717042365e+02
          7.346452715475e+02 0.000000000000e+00 -5.171394076416e+02
          7.173503090590e+02 0.000000000000e+00 -5.189120145088e+02
          6.995831314751e+02 0.000000000000e+00 -5.185770313868e+02
          6.808919986124e+02 0.000000000000e+00 -5.181358536332e+02
          6.618060210747e+02 0.000000000000e+00 -5.178558323045e+02
          6.425724412769e+02 0.000000000000e+00 -5.176682457663e+02
          6.233008857132e+02 0.000000000000e+00 -5.175742794982e+02
          6.040517693027e+02 0.000000000000e+00 -5.175500984534e+02
          5.848400893791e+02 0.000000000000e+00 -5.175787880962e+02
          5.656662786831e+02 0.000000000000e+00 -5.176543794376e+02
          5.465364119483e+02 0.000000000000e+00 -5.177857172091e+02
          5.274808642474e+02 0.000000000000e+00 -5.180025623290e+02
          5.086319472006e+02 0.000000000000e+00 -5.183443480520e+02
          4.904118656240e+02 0.000000000000e+00 -5.186981738066e+02
          4.721941478745e+02 0.000000000000e+00 -5.174529345577e+02
          4.504584700704e+02 0.000000000000e+00 -5.141193969714e+02
          4.317878989251e+02 0.000000000000e+00 -5.022665567084e+02
          4.185811680385e+02 0.000000000000e+00 -4.325955296740e+02
          4.040642771278e+02 0.000000000000e+00 -4.480756756942e+02
          8.180478846653e+02 0.000000000000e+00 -4.802958839548e+02
          7.996367005111e+02 0.000000000000e+00 -4.917148678874e+02
          8.186126508774e+02 0.000000000000e+00 -4.602973070993e+02
          8.195098075253e+02 0.000000000000e+00 -4.410712414741e+02
          8.202393880806e+02 0.000000000000e+00 -4.222852577854e+02
          8.210888866581e+02 0.000000000000e+00 -4.037809127886e+02
          8.063884084716e+02 0.000000000000e+00 -3.940241232951e+02
          8.045060307133e+02 0.000000000000e+00 -4.124202881022e+02
          7.883916257590e+02 0.000000000000e+00 -4.220585046362e+02
          8.039693244998e+02 0.000000000000e+00 -4.313137763228e+02
          8.028634239607e+02 0.000000000000e+00 -4.500588025791e+02
          7.882240859125e+02 0.000000000000e+00 -4.400851858884e+02
          7.743644159899e+02 0.000000000000e+00 -4.317632749322e+02
          7.625079722679e+02 0.000000000000e+00 -4.260801957050e+02
          7.489913045416e+02 0.000000000000e+00 -4.295129809779e+02
          8.007358898113e+02 0.000000000000e+00 -4.697868648875e+02
          7.860568349493e+02 0.000000000000e+00 -4.579294184288e+02
          7.735958510546e+02 0.000000000000e+00 -4.474934948619e+02
          7.610687349552e+02 0.000000000000e+00 -4.392048215269e+02
          7.297449028636e+02 0.000000000000e+00 -4.357384111817e+02
          7.080181647588e+02 0.000000000000e+00 -4.335226739250e+02
          6.890579453518e+02 0.000000000000e+00 -4.324708676174e+02
          6.704966380659e+02 0.000000000000e+00 -4.324801440926e+02
          6.515227068185e+02 0.000000000000e+00 -4.327877155204e+02
          6.322582571838e+02 0.000000000000e+00 -4.329539995542e+02
          6.129686879096e+02 0.000000000000e+00 -4.330331286483e+02
          5.937126861528e+02 0.000000000000e+00 -4.330809024761e+02
          5.744864156060e+02 0.000000000000e+00 -4.331224109384e+02
          5.552743294963e+02 0.000000000000e+00 -4.331586437719e+02
          5.360645597335e+02 0.000000000000e+00 -4.331735239177e+02
          5.168617340801e+02 0.000000000000e+00 -4.331358404370e+02
          4.977190768633e+02 0.000000000000e+00 -4.330104507039e+02
          4.787118293391e+02 0.000000000000e+00 -4.328923164026e+02
          4.595929836260e+02 0.000000000000e+00 -4.332237875408e+02
          4.394442917802e+02 0.000000000000e+00 -4.340498196478e+02
          7.791805579550e+02 0.000000000000e+00 -4.784965776663e+02
          7.716917782687e+02 0.000000000000e+00 -4.617468282853e+02
          7.600942087055e+02 0.000000000000e+00 -4.543342169086e+02
          7.582767938529e+02 0.000000000000e+00 -4.907754527708e+02
          7.594966403052e+02 0.000000000000e+00 -4.705400096143e+02
          7.389235969513e+02 0.000000000000e+00 -4.988506553648e+02
          7.245576201733e+02 0.000000000000e+00 -5.055716701498e+02
          7.094908217237e+02 0.000000000000e+00 -5.030458483489e+02
          7.468017671217e+02 0.000000000000e+00 -4.461164617168e+02
          7.478576419329e+02 0.000000000000e+00 -4.609761417281e+02
          7.398488398877e+02 0.000000000000e+00 -4.769277390007e+02
          7.223321724166e+02 0.000000000000e+00 -4.897856931129e+02
          7.330105562496e+02 0.000000000000e+00 -4.569782571886e+02
          7.147800991870e+02 0.000000000000e+00 -4.515650725693e+02
          7.189970323797e+02 0.000000000000e+00 -4.705493462213e+02
          6.970446265247e+02 0.000000000000e+00 -4.482959236695e+02
          7.018445974956e+02 0.000000000000e+00 -4.642907718044e+02
          6.801063069444e+02 0.000000000000e+00 -4.481268239548e+02
          6.884844823105e+02 0.000000000000e+00 -4.597799445119e+02
          6.617910837625e+02 0.000000000000e+00 -4.493569947306e+02
          6.422750603171e+02 0.000000000000e+00 -4.497247550900e+02
          6.228144636162e+02 0.000000000000e+00 -4.498568752964e+02
          6.034624492752e+02 0.000000000000e+00 -4.499210374003e+02
          5.841824667349e+02 0.000000000000e+00 -4.499740774423e+02
          5.649370282595e+02 0.000000000000e+00 -4.500323353076e+02
          5.456912440773e+02 0.000000000000e+00 -4.500910373762e+02
          5.264104147196e+02 0.000000000000e+00 -4.501246337738e+02
          5.070906474632e+02 0.000000000000e+00 -4.500534384163e+02
          4.879615637307e+02 0.000000000000e+00 -4.496624283218e+02
          4.695372919670e+02 0.000000000000e+00 -4.492069079072e+02
          4.510006682257e+02 0.000000000000e+00 -4.508933536069e+02
          4.278936497180e+02 0.000000000000e+00 -4.557940022541e+02
          4.055168419717e+02 0.000000000000e+00 -4.734131744477e+02
          4.291585044763e+02 0.000000000000e+00 -4.813728812150e+02
          4.472283503516e+02 0.000000000000e+00 -4.701810216539e+02
          4.620450157325e+02 0.000000000000e+00 -4.630046249912e+02
          4.776863676811e+02 0.000000000000e+00 -4.657059547700e+02
          4.968737575646e+02 0.000000000000e+00 -4.672477748104e+02
          5.166569274921e+02 0.000000000000e+00 -4.672654048005e+02
          5.361159147995e+02 0.000000000000e+00 -4.671363002883e+02
          5.554195633611e+02 0.000000000000e+00 -4.670206798614e+02
          5.746782254900e+02 0.000000000000e+00 -4.669329119852e+02
          5.939542414561e+02 0.000000000000e+00 -4.668706247650e+02
          6.133009738431e+02 0.000000000000e+00 -4.668249649952e+02
          6.327937750590e+02 0.000000000000e+00 -4.667747935243e+02
          6.526345872220e+02 0.000000000000e+00 -4.666685720741e+02
          6.738379935281e+02 0.000000000000e+00 -4.663609054876e+02
          7.021435454734e+02 0.000000000000e+00 -4.837047047259e+02
          6.896170735150e+02 0.000000000000e+00 -4.717911344051e+02
          6.909326460983e+02 0.000000000000e+00 -5.015902958527e+02
          6.817835212896e+02 0.000000000000e+00 -4.847804611863e+02
          6.717048781961e+02 0.000000000000e+00 -5.012106974952e+02
          6.624952373547e+02 0.000000000000e+00 -4.839575240680e+02
          6.523611486103e+02 0.000000000000e+00 -5.008787380447e+02
          6.427168744424e+02 0.000000000000e+00 -4.838016163766e+02
          6.231648061625e+02 0.000000000000e+00 -4.837727180172e+02
          6.037751040608e+02 0.000000000000e+00 -4.837857661278e+02
          6.329414454462e+02 0.000000000000e+00 -5.007355299457e+02
          6.135791456940e+02 0.000000000000e+00 -5.006912037150e+02
          5.844783508678e+02 0.000000000000e+00 -4.838329821622e+02
          5.942878443568e+02 0.000000000000e+00 -5.007052468166e+02
          5.750460678789e+02 0.000000000000e+00 -5.007662089648e+02
          5.558375731501e+02 0.000000000000e+00 -5.008820476381e+02
          5.652308937213e+02 0.000000000000e+00 -4.839151279980e+02
          5.459719179815e+02 0.000000000000e+00 -4.840578866380e+02
          5.366475117553e+02 0.000000000000e+00 -5.010864925417e+02
          5.174584789763e+02 0.000000000000e+00 -5.014759181506e+02
          5.266172277269e+02 0.000000000000e+00 -4.842986855389e+02
          5.068508147795e+02 0.000000000000e+00 -4.847828346965e+02
          4.985062364623e+02 0.000000000000e+00 -5.023412882103e+02
          4.826757613429e+02 0.000000000000e+00 -5.046627364788e+02
          4.849377789993e+02 0.000000000000e+00 -4.860816577834e+02
          4.646164644802e+02 0.000000000000e+00 -4.791123201663e+02
          4.672331475750e+02 0.000000000000e+00 -4.987347632995e+02
          4.484228411064e+02 0.000000000000e+00 -4.909656167655e+02
          0.000000000000e+00 0.000000000000e+00 -5.200347369603e+02
          0.000000000000e+00 0.000000000000e+00 -5.400694400626e+02
          0.000000000000e+00 0.000000000000e+00 -5.601041431649e+02
          0.000000000000e+00 0.000000000000e+00 -5.801388462673e+02
          0.000000000000e+00 0.000000000000e+00 -6.001735493696e+02
          0.000000000000e+00 0.000000000000e+00 -6.202082524719e+02
          0.000000000000e+00 0.000000000000e+00 -6.402429555742e+02
          0.000000000000e+00 0.000000000000e+00 -6.602776586765e+02
          0.000000000000e+00 0.000000000000e+00 -6.803123617788e+02
          0.000000000000e+00 0.000000000000e+00 -7.003470648812e+02
          1.932252394982e+01 0.000000000000e+00 -7.003471697216e+02
          3.864504789963e+01 0.000000000000e+00 -7.003472745620e+02
          5.796757184945e+01 0.000000000000e+00 -7.003473794025e+02
          7.729009579927e+01 0.000000000000e+00 -7.003474842429e+02
          9.661261974908e+01 0.000000000000e+00 -7.003475890834e+02
          1.159351436989e+02 0.000000000000e+00 -7.003476939238e+02
          1.352576676487e+02 0.000000000000e+00 -7.003477987642e+02
          1.545801915985e+02 0.000000000000e+00 -7.003479036047e+02
          1.739027155483e+02 0.000000000000e+00 -7.003480084451e+02
          1.932252394982e+02 0.000000000000e+00 -7.003481132855e+02
          2.125477634480e+02 0.000000000000e+00 -7.003482181260e+02
          2.318702873978e+02 0.000000000000e+00 -7.003483229664e+02
          2.511928113476e+02 0.000000000000e+00 -7.003484278068e+02
          2.705153352974e+02 0.000000000000e+00 -7.003485326473e+02
          2.898378592472e+02 0.000000000000e+00 -7.003486374877e+02
          2.930493775798e+02 0.000000000000e+00 -6.821351795166e+02
          2.962608959123e+02 0.000000000000e+00 -6.639217215454e+02
          2.994724142448e+02 0.000000000000e+00 -6.457082635742e+02
          3.026839325774e+02 0.000000000000e+00 -6.274948056031e+02
          3.058954509099e+02 0.000000000000e+00 -6.092813476319e+02
          3.091069692424e+02 0.000000000000e+00 -5.910678896607e+02
          3.123184875749e+02 0.000000000000e+00 -5.728544316896e+02
          3.155300059075e+02 0.000000000000e+00 -5.546409737184e+02
          3.187415242400e+02 0.000000000000e+00 -5.364275157473e+02
          3.219530425725e+02 0.000000000000e+00 -5.182140577761e+02
          1.237861021763e+01 0.000000000000e+00 -5.126626955053e+02
          1.235296943663e+01 0.000000000000e+00 -6.874571060010e+02
          2.771290455869e+02 0.000000000000e+00 -6.855497894760e+02
          2.750154640372e+01 0.000000000000e+00 -5.151296686101e+02
          2.749357716868e+01 0.000000000000e+00 -6.845591632682e+02
          2.807761247055e+02 0.000000000000e+00 -6.699103134621e+02
          1.493921594001e+01 0.000000000000e+00 -6.717425077027e+02
          1.530274200742e+01 0.000000000000e+00 -5.281433665572e+02
          2.606418517092e+02 0.000000000000e+00 -6.860305792578e+02
          2.680239209603e+02 0.000000000000e+00 -6.745586098310e+02
          2.828459342803e+02 0.000000000000e+00 -6.528346861508e+02
          2.674131951130e+02 0.000000000000e+00 -6.605226332980e+02
          2.852740516312e+02 0.000000000000e+00 -6.345522031900e+02
          2.884111320731e+02 0.000000000000e+00 -6.158852173791e+02
          2.920844030775e+02 0.000000000000e+00 -5.974788251678e+02
          2.958000490943e+02 0.000000000000e+00 -5.797106313894e+02
          2.986617948543e+02 0.000000000000e+00 -5.623542397536e+02
          2.998958663870e+02 0.000000000000e+00 -5.442315261618e+02
          2.989392818459e+02 0.000000000000e+00 -5.219052039620e+02
          2.428559367194e+02 0.000000000000e+00 -6.845836527065e+02
          2.542328887831e+02 0.000000000000e+00 -6.708201359142e+02
          2.235419095565e+02 0.000000000000e+00 -6.833033784045e+02
          2.035545104840e+02 0.000000000000e+00 -6.829564340925e+02
          1.836460803049e+02 0.000000000000e+00 -6.831777249871e+02
          1.640075170368e+02 0.000000000000e+00 -6.834556623237e+02
          1.445794495369e+02 0.000000000000e+00 -6.837240866666e+02
          1.253931909371e+02 0.000000000000e+00 -6.839375977076e+02
          1.064614488369e+02 0.000000000000e+00 -6.838495322878e+02
          8.746330792571e+01 0.000000000000e+00 -6.830051635677e+02
          6.746821783229e+01 0.000000000000e+00 -6.815154012515e+02
          4.676112796426e+01 0.000000000000e+00 -6.819031670917e+02
          4.623269966468e+01 0.000000000000e+00 -5.167921216645e+02
          6.595371744801e+01 0.000000000000e+00 -5.172737180148e+02
          8.563264421442e+01 0.000000000000e+00 -5.170735747781e+02
          1.050214868135e+02 0.000000000000e+00 -5.167768947634e+02
          1.242334016668e+02 0.000000000000e+00 -5.165805058710e+02
          1.433995261468e+02 0.000000000000e+00 -5.165081101562e+02
          1.626034792933e+02 0.000000000000e+00 -5.165034831186e+02
          1.818453938167e+02 0.000000000000e+00 -5.164549687024e+02
          2.010178723378e+02 0.000000000000e+00 -5.162745101134e+02
          2.199785887821e+02 0.000000000000e+00 -5.160388809468e+02
          2.386831475993e+02 0.000000000000e+00 -5.159884623542e+02
          2.572793823560e+02 0.000000000000e+00 -5.164476073831e+02
          2.763981557788e+02 0.000000000000e+00 -5.179730946335e+02
          2.825688185909e+02 0.000000000000e+00 -5.365318934628e+02
          2.848180467099e+02 0.000000000000e+00 -5.536232903727e+02
          2.647944441449e+02 0.000000000000e+00 -5.329999774819e+02
          2.703536635641e+02 0.000000000000e+00 -5.485697277509e+02
          2.471854037669e+02 0.000000000000e+00 -5.317406081232e+02
          2.546845827649e+02 0.000000000000e+00 -5.467921361451e+02
          2.834564157992e+02 0.000000000000e+00 -5.692052034966e+02
          2.737104560728e+02 0.000000000000e+00 -5.610202215594e+02
          2.611818556184e+02 0.000000000000e+00 -5.605863233283e+02
          2.292624473382e+02 0.000000000000e+00 -5.316620741825e+02
          2.380495740104e+02 0.000000000000e+00 -5.465287710748e+02
          2.460779389008e+02 0.000000000000e+00 -5.603909426281e+02
          2.107645007597e+02 0.000000000000e+00 -5.322150937807e+02
          1.916518088994e+02 0.000000000000e+00 -5.328131952092e+02
          1.722280107027e+02 0.000000000000e+00 -5.330011154933e+02
          1.528811481269e+02 0.000000000000e+00 -5.329238788569e+02
          1.337168702637e+02 0.000000000000e+00 -5.329314883504e+02
          1.146020542538e+02 0.000000000000e+00 -5.331961802522e+02
          9.530156539605e+01 0.000000000000e+00 -5.337821732576e+02
          7.545969821499e+01 0.000000000000e+00 -5.346092419693e+02
          2.205363943714e+02 0.000000000000e+00 -5.473644419127e+02
          2.300319675786e+02 0.000000000000e+00 -5.612030148715e+02
          2.789899366612e+02 0.000000000000e+00 -5.854734353702e+02
          2.684512265987e+02 0.000000000000e+00 -5.732576873606e+02
          2.533267102770e+02 0.000000000000e+00 -5.736422754458e+02
          2.386107759765e+02 0.000000000000e+00 -5.736788899239e+02
          2.741178454188e+02 0.000000000000e+00 -6.036345479282e+02
          2.702744039914e+02 0.000000000000e+00 -6.230368077636e+02
          2.679022800192e+02 0.000000000000e+00 -6.424868769051e+02
          2.507672351504e+02 0.000000000000e+00 -6.526015264094e+02
          2.017954049730e+02 0.000000000000e+00 -5.489939794166e+02
          1.819899885366e+02 0.000000000000e+00 -5.497690097380e+02
          1.622253247304e+02 0.000000000000e+00 -5.493622393904e+02
          1.430455194046e+02 0.000000000000e+00 -5.490734813186e+02
          1.241667140430e+02 0.000000000000e+00 -5.491871148838e+02
          1.052845848435e+02 0.000000000000e+00 -5.498551352481e+02
          8.599188701025e+01 0.000000000000e+00 -5.511676409938e+02
          5.462380123383e+01 0.000000000000e+00 -5.351794203128e+02
          6.547707186901e+01 0.000000000000e+00 -5.531962182735e+02
          3.379769975983e+01 0.000000000000e+00 -5.331785509270e+02
          2.128153164054e+02 0.000000000000e+00 -5.634971276363e+02
          2.235075761214e+02 0.000000000000e+00 -5.757706281281e+02
          3.294784945819e+01 0.000000000000e+00 -6.656111554790e+02
          1.685836908956e+01 0.000000000000e+00 -6.522880913569e+02
          1.770202116559e+01 0.000000000000e+00 -6.317562406836e+02
          1.802466471884e+01 0.000000000000e+00 -6.111599434162e+02
          1.853130685980e+01 0.000000000000e+00 -5.905159082305e+02
          1.924230710335e+01 0.000000000000e+00 -5.692038257257e+02
          1.821447067649e+01 0.000000000000e+00 -5.477897296103e+02
          1.926103120655e+02 0.000000000000e+00 -5.681688617452e+02
          1.711746807430e+02 0.000000000000e+00 -5.660960528131e+02
          1.519415942102e+02 0.000000000000e+00 -5.651110473628e+02
          1.333995345362e+02 0.000000000000e+00 -5.647473379486e+02
          1.151347619543e+02 0.000000000000e+00 -5.651955559078e+02
          9.678618368521e+01 0.000000000000e+00 -5.665475174645e+02
          7.796830497186e+01 0.000000000000e+00 -5.690241636968e+02
          5.608716239507e+01 0.000000000000e+00 -6.590985845332e+02
          7.931809197402e+01 0.000000000000e+00 -6.644579161041e+02
          9.772255840055e+01 0.000000000000e+00 -6.675584651651e+02
          1.157491162433e+02 0.000000000000e+00 -6.679176208136e+02
          1.345021128551e+02 0.000000000000e+00 -6.674178670852e+02
          1.538828370280e+02 0.000000000000e+00 -6.667714041005e+02
          1.736229564754e+02 0.000000000000e+00 -6.662607561877e+02
          1.937462597134e+02 0.000000000000e+00 -6.655830609940e+02
          2.147923139844e+02 0.000000000000e+00 -6.648904395798e+02
          2.357721278979e+02 0.000000000000e+00 -6.666537053383e+02
          3.563027882757e+01 0.000000000000e+00 -6.441728706123e+02
          3.585586337737e+01 0.000000000000e+00 -6.225838952470e+02
          3.627676340959e+01 0.000000000000e+00 -6.018372272850e+02
          3.787855108249e+01 0.000000000000e+00 -5.806699267107e+02
          4.102777731710e+01 0.000000000000e+00 -5.560540950958e+02
          5.810816892337e+01 0.000000000000e+00 -5.731927428501e+02
          5.440596399701e+01 0.000000000000e+00 -5.933037742403e+02
          5.330095187428e+01 0.000000000000e+00 -6.129181660649e+02
          5.448762714142e+01 0.000000000000e+00 -6.338025231846e+02
          7.623683241313e+01 0.000000000000e+00 -6.423600933672e+02
          9.114288758714e+01 0.000000000000e+00 -6.532756183122e+02
          1.064186063187e+02 0.000000000000e+00 -6.528710950783e+02
          1.242396662275e+02 0.000000000000e+00 -6.518440308584e+02
          1.434271015031e+02 0.000000000000e+00 -6.502245468864e+02
          1.634212511923e+02 0.000000000000e+00 -6.494129077378e+02
          1.832824827555e+02 0.000000000000e+00 -6.490264075103e+02
          2.037790984240e+02 0.000000000000e+00 -6.470926330861e+02
          2.284815776134e+02 0.000000000000e+00 -6.437335922100e+02
          2.597026384842e+02 0.000000000000e+00 -5.897698788958e+02
          2.453975439661e+02 0.000000000000e+00 -5.843365393013e+02
          2.327288270450e+02 0.000000000000e+00 -5.868367515022e+02
          2.549911673659e+02 0.000000000000e+00 -6.103608197308e+02
          2.422269584490e+02 0.000000000000e+00 -5.978690958320e+02
          2.508384005432e+02 0.000000000000e+00 -6.314517537510e+02
          2.325374340659e+02 0.000000000000e+00 -6.165470146767e+02
          2.277304375029e+02 0.000000000000e+00 -5.994559672931e+02
          2.184109834016e+02 0.000000000000e+00 -5.900191913577e+02
          2.078978485289e+02 0.000000000000e+00 -5.794325275729e+02
          2.108066643476e+02 0.000000000000e+00 -6.269618908276e+02
          2.124365741154e+02 0.000000000000e+00 -6.060546081344e+02
          2.057339934265e+02 0.000000000000e+00 -5.925778329714e+02
          1.916308280630e+02 0.000000000000e+00 -6.323306445160e+02
          1.939924490163e+02 0.000000000000e+00 -5.865368125539e+02
          1.781961727929e+02 0.000000000000e+00 -5.827168159280e+02
          1.736749583051e+02 0.000000000000e+00 -6.333765622252e+02
          1.599855010049e+02 0.000000000000e+00 -5.812634942281e+02
          1.528976893822e+02 0.000000000000e+00 -6.306843350509e+02
          1.419076443925e+02 0.000000000000e+00 -5.799264777526e+02
          1.244520921347e+02 0.000000000000e+00 -5.798241454901e+02
          1.070879351613e+02 0.000000000000e+00 -5.809110966341e+02
          8.967805102689e+01 0.000000000000e+00 -5.831098798773e+02
          7.219569294339e+01 0.000000000000e+00 -5.869795713694e+02
          6.909527648185e+01 0.000000000000e+00 -6.043412486448e+02
          7.005818764337e+01 0.000000000000e+00 -6.217684938622e+02
          8.428591796578e+01 0.000000000000e+00 -5.989634726879e+02
          8.080904555927e+01 0.000000000000e+00 -6.122010546479e+02
          8.676932773392e+01 0.000000000000e+00 -6.250519094184e+02
          9.625229543319e+01 0.000000000000e+00 -6.391591864172e+02
          1.002590101973e+02 0.000000000000e+00 -5.962548829023e+02
          1.167247439670e+02 0.000000000000e+00 -5.944759558188e+02
          1.328868139153e+02 0.000000000000e+00 -5.935570471740e+02
          9.422291976622e+01 0.000000000000e+00 -6.109193087219e+02
          1.101015890491e+02 0.000000000000e+00 -6.091011944042e+02
          1.260444084082e+02 0.000000000000e+00 -6.070926696929e+02
          1.035167275982e+02 0.000000000000e+00 -6.239320874646e+02
          1.203484459180e+02 0.000000000000e+00 -6.218691310463e+02
          1.137528639555e+02 0.000000000000e+00 -6.374669489551e+02
          1.319375104244e+02 0.000000000000e+00 -6.350981294238e+02
          1.371532283843e+02 0.000000000000e+00 -6.184469431026e+02
          1.394817714041e+02 0.000000000000e+00 -6.049879381488e+02
          1.524594627181e+02 0.000000000000e+00 -6.108426409773e+02
          1.685766322608e+02 0.000000000000e+00 -6.172357739133e+02
          1.824225470085e+02 0.000000000000e+00 -6.214523931650e+02
          1.958980188291e+02 0.000000000000e+00 -6.159891414913e+02
          1.956814162099e+02 0.000000000000e+00 -6.008182045575e+02
          1.835942184668e+02 0.000000000000e+00 -5.954201992917e+02
          1.823186682391e+02 0.000000000000e+00 -6.082744273527e+02
          1.677343171960e+02 0.000000000000e+00 -5.986733188887e+02
          1.490673717597e+02 0.000000000000e+00 -5.948822276811e+02
          2.862709814527e+02 0.000000000000e+00 -7.205774427048e+02
          2.827041036581e+02 0.000000000000e+00 -7.408062479219e+02
          2.791372258635e+02 0.000000000000e+00 -7.610350531390e+02
          2.755703480689e+02 0.000000000000e+00 -7.812638583561e+02
          2.720034702743e+02 0.000000000000e+00 -8.014926635732e+02
          2.685338377277e+02 0.000000000000e+00 -8.211699626013e+02
          2.650642051811e+02 0.000000000000e+00 -8.408472616293e+02
          2.615945726345e+02 0.000000000000e+00 -8.605245606574e+02
          2.581249400879e+02 0.000000000000e+00 -8.802018596854e+02
          2.546553075413e+02 0.000000000000e+00 -8.998791587134e+02
          2.511856749946e+02 0.000000000000e+00 -9.195564577415e+02
          2.477160424480e+02 0.000000000000e+00 -9.392337567695e+02
          2.442464099014e+02 0.000000000000e+00 -9.589110557976e+02
          2.407767773548e+02 0.000000000000e+00 -9.785883548256e+02
          2.373071448082e+02 0.000000000000e+00 -9.982656538537e+02
          2.340750614250e+02 0.000000000000e+00 -1.016605139867e+03
          2.308429780418e+02 0.000000000000e+00 -1.034944625880e+03
          2.276108946586e+02 0.000000000000e+00 -1.053284111894e+03
          2.243788112754e+02 0.000000000000e+00 -1.071623597907e+03
          2.211467278922e+02 0.000000000000e+00 -1.089963083920e+03
          2.179146445090e+02 0.000000000000e+00 -1.108302569933e+03
          2.146825611258e+02 0.000000000000e+00 -1.126642055947e+03
          2.114504777426e+02 0.000000000000e+00 -1.144981541960e+03
          2.082183943594e+02 0.000000000000e+00 -1.163321027973e+03
          2.049863109762e+02 0.000000000000e+00 -1.181660513987e+03
          2.017542275930e+02 0.000000000000e+00 -1.200000000000e+03
          2.224110386929e+02 0.000000000000e+00 -1.200000000000e+03
          2.259574309544e+02 0.000000000000e+00 -1.179882000000e+03
          2.295038232158e+02 0.000000000000e+00 -1.159764000000e+03
          2.330502154772e+02 0.000000000000e+00 -1.139646000000e+03
          2.365966077386e+02 0.000000000000e+00 -1.119528000000e+03
          2.401430000000e+02 0.000000000000e+00 -1.099410000000e+03
          2.435802428103e+02 0.000000000000e+00 -1.079916603050e+03
          2.470174856205e+02 0.000000000000e+00 -1.060423206099e+03
          2.504547284308e+02 0.000000000000e+00 -1.040929809149e+03
          2.538919712410e+02 0.000000000000e+00 -1.021436412199e+03
          2.573292140513e+02 0.000000000000e+00 -1.001943015249e+03
          2.607664568615e+02 0.000000000000e+00 -9.824496182983e+02
          2.642036996718e+02 0.000000000000e+00 -9.629562213480e+02
          2.676409424821e+02 0.000000000000e+00 -9.434628243977e+02
          2.710781852923e+02 0.000000000000e+00 -9.239694274475e+02
          2.745154281026e+02 0.000000000000e+00 -9.044760304972e+02
          2.781464286272e+02 0.000000000000e+00 -8.838834367964e+02
          2.817774291518e+02 0.000000000000e+00 -8.632908430956e+02
          2.854084296764e+02 0.000000000000e+00 -8.426982493949e+02
          2.890394302010e+02 0.000000000000e+00 -8.221056556941e+02
          2.926704307257e+02 0.000000000000e+00 -8.015130619933e+02
          2.958895144935e+02 0.000000000000e+00 -7.832565831882e+02
          2.991085982613e+02 0.000000000000e+00 -7.650001043831e+02
          3.023276820290e+02 0.000000000000e+00 -7.467436255780e+02
          3.055467657968e+02 0.000000000000e+00 -7.284871467730e+02
          3.087658495646e+02 0.000000000000e+00 -7.102306679679e+02
          3.119849333324e+02 0.000000000000e+00 -6.919741891628e+02
          3.152040171002e+02 0.000000000000e+00 -6.737177103577e+02
          3.184231008680e+02 0.000000000000e+00 -6.554612315526e+02
          3.216421846358e+02 0.000000000000e+00 -6.372047527475e+02
          3.248612684036e+02 0.000000000000e+00 -6.189482739424e+02
          2.657768830100e+02 0.000000000000e+00 -8.954201457226e+02
          2.490448979441e+02 0.000000000000e+00 -9.903116600595e+02
          2.634422967194e+02 0.000000000000e+00 -9.086602439551e+02
          3.122617071539e+02 0.000000000000e+00 -8.015124914258e+02
          3.318529835821e+02 0.000000000000e+00 -8.015119208582e+02
          3.514442600103e+02 0.000000000000e+00 -8.015113502906e+02
          3.710355364385e+02 0.000000000000e+00 -8.015107797231e+02
          3.906268128667e+02 0.000000000000e+00 -8.015102091555e+02
          4.102180892949e+02 0.000000000000e+00 -8.015096385879e+02
          4.298093657231e+02 0.000000000000e+00 -8.015090680204e+02
          4.494006421513e+02 0.000000000000e+00 -8.015084974528e+02
          4.689919185795e+02 0.000000000000e+00 -8.015079268852e+02
          4.885831950077e+02 0.000000000000e+00 -8.015073563177e+02
          5.081744714359e+02 0.000000000000e+00 -8.015067857501e+02
          5.277657478641e+02 0.000000000000e+00 -8.015062151825e+02
          5.473570242923e+02 0.000000000000e+00 -8.015056446150e+02
          5.669483007205e+02 0.000000000000e+00 -8.015050740474e+02
          5.865395771487e+02 0.000000000000e+00 -8.015045034798e+02
          6.061308535769e+02 0.000000000000e+00 -8.015039329123e+02
          6.257221300051e+02 0.000000000000e+00 -8.015033623447e+02
          6.453134064333e+02 0.000000000000e+00 -8.015027917772e+02
          6.649046828615e+02 0.000000000000e+00 -8.015022212096e+02
          6.844959592897e+02 0.000000000000e+00 -8.015016506420e+02
          7.040872357180e+02 0.000000000000e+00 -8.015010800745e+02
          7.236785121462e+02 0.000000000000e+00 -8.015005095069e+02
          7.432697885744e+02 0.000000000000e+00 -8.014999389393e+02
          7.628610650026e+02 0.000000000000e+00 -8.014993683718e+02
          7.824523414308e+02 0.000000000000e+00 -8.014987978042e+02
          8.020436178590e+02 0.000000000000e+00 -8.014982272366e+02
          8.216348942872e+02 0.000000000000e+00 -8.014976566691e+02
          8.412261707154e+02 0.000000000000e+00 -8.014970861015e+02
          8.608174471436e+02 0.000000000000e+00 -8.014965155339e+02
          8.804087235718e+02 0.000000000000e+00 -8.014959449664e+02
          9.000000000000e+02 0.000000000000e+00 -8.014953743988e+02
          9.000000000000e+02 0.000000000000e+00 -7.814320454729e+02
          9.000000000000e+02 0.000000000000e+00 -7.613687165469e+02
          9.000000000000e+02 0.000000000000e+00 -7.413053876210e+02
          9.000000000000e+02 0.000000000000e+00 -7.212420586951e+02
          9.000000000000e+02 0.000000000000e+00 -7.011787297691e+02
          9.000000000000e+02 0.000000000000e+00 -6.811154008432e+02
          9.000000000000e+02 0.000000000000e+00 -6.610520719172e+02
          9.000000000000e+02 0.000000000000e+00 -6.409887429913e+02
          9.000000000000e+02 0.000000000000e+00 -6.209254140654e+02
          8.873143024466e+02 0.000000000000e+00 -7.887554804782e+02
          8.877661480083e+02 0.000000000000e+00 -6.135932610217e+02
          3.409210194087e+02 0.000000000000e+00 -6.157447306040e+02
          8.728359379979e+02 0.000000000000e+00 -6.161868961426e+02
          8.718188780666e+02 0.000000000000e+00 -7.861906219931e+02
          8.843294984107e+02 0.000000000000e+00 -7.731446638397e+02
          3.375012892441e+02 0.000000000000e+00 -6.317269462590e+02
          8.850504393971e+02 0.000000000000e+00 -6.291553041743e+02
          3.575148359623e+02 0.000000000000e+00 -6.152865038386e+02
          3.505182591670e+02 0.000000000000e+00 -6.271697375055e+02
          3.354520847770e+02 0.000000000000e+00 -6.492764782949e+02
          3.517264465905e+02 0.000000000000e+00 -6.420682409303e+02
          3.327098986251e+02 0.000000000000e+00 -6.679511800176e+02
          3.291215860090e+02 0.000000000000e+00 -6.866200383232e+02
          3.251741014317e+02 0.000000000000e+00 -7.046223398983e+02
          3.215689264306e+02 0.000000000000e+00 -7.219388034226e+02
          3.190216827604e+02 0.000000000000e+00 -7.390449310124e+02
          3.180705416374e+02 0.000000000000e+00 -7.570895696318e+02
          3.193196584021e+02 0.000000000000e+00 -7.794694974970e+02
          3.753734341755e+02 0.000000000000e+00 -6.163872981150e+02
          3.650266057332e+02 0.000000000000e+00 -6.310601967490e+02
          3.943663092630e+02 0.000000000000e+00 -6.170553177145e+02
          4.135962742610e+02 0.000000000000e+00 -6.172161277390e+02
          4.327457650017e+02 0.000000000000e+00 -6.172917933455e+02
          4.518945867172e+02 0.000000000000e+00 -6.174347439782e+02
          4.711394753923e+02 0.000000000000e+00 -6.175905965758e+02
          4.904641204429e+02 0.000000000000e+00 -6.176246228630e+02
          5.097572720649e+02 0.000000000000e+00 -6.174954449720e+02
          5.289186188254e+02 0.000000000000e+00 -6.172838614034e+02
          5.479210305709e+02 0.000000000000e+00 -6.170868218992e+02
          5.668056519224e+02 0.000000000000e+00 -6.169733300737e+02
          5.856557600102e+02 0.000000000000e+00 -6.169750863458e+02
          6.045499427364e+02 0.000000000000e+00 -6.170738945488e+02
          6.235261546151e+02 0.000000000000e+00 -6.172302228149e+02
          6.425932502999e+02 0.000000000000e+00 -6.174138881812e+02
          6.617526977572e+02 0.000000000000e+00 -6.175883054905e+02
          6.809722972675e+02 0.000000000000e+00 -6.176667136932e+02
          7.001433981524e+02 0.000000000000e+00 -6.175595683469e+02
          7.191345377208e+02 0.000000000000e+00 -6.173276409013e+02
          7.379191000339e+02 0.000000000000e+00 -6.171866600359e+02
          7.566247196040e+02 0.000000000000e+00 -6.173322964398e+02
          7.754782647527e+02 0.000000000000e+00 -6.178138904324e+02
          7.947029946740e+02 0.000000000000e+00 -6.184856204058e+02
          8.144026901034e+02 0.000000000000e+00 -6.190561845190e+02
          8.344376079426e+02 0.000000000000e+00 -6.191171620891e+02
          8.542618543695e+02 0.000000000000e+00 -6.181976309418e+02
          8.671099302349e+02 0.000000000000e+00 -6.345344162661e+02
          8.526130299991e+02 0.000000000000e+00 -7.843920997552e+02
          8.323681935430e+02 0.000000000000e+00 -7.837927712264e+02
          8.121627070472e+02 0.000000000000e+00 -7.839331600333e+02
          7.922829894308e+02 0.000000000000e+00 -7.842277460257e+02
          7.726294566022e+02 0.000000000000e+00 -7.844568349372e+02
          7.530728835485e+02 0.000000000000e+00 -7.845728654406e+02
          7.335299530175e+02 0.000000000000e+00 -7.846018088883e+02
          7.139716421820e+02 0.000000000000e+00 -7.845924964785e+02
          6.944062977808e+02 0.000000000000e+00 -7.845783698980e+02
          6.748489399046e+02 0.000000000000e+00 -7.845608997507e+02
          6.552992362629e+02 0.000000000000e+00 -7.845289116113e+02
          6.357427503861e+02 0.000000000000e+00 -7.844820080758e+02
          6.161631878950e+02 0.000000000000e+00 -7.844312271674e+02
          5.965512170825e+02 0.000000000000e+00 -7.843920891932e+02
          5.769099887708e+02 0.000000000000e+00 -7.843805711618e+02
          5.572567668225e+02 0.000000000000e+00 -7.844048084279e+02
          5.376151593120e+02 0.000000000000e+00 -7.844548656018e+02
          5.180004884167e+02 0.000000000000e+00 -7.845046461146e+02
          4.984095261554e+02 0.000000000000e+00 -7.845280238104e+02
          4.788221156400e+02 0.000000000000e+00 -7.845165118053e+02
          4.592152520145e+02 0.000000000000e+00 -7.844890723469e+02
          4.395827263368e+02 0.000000000000e+00 -7.844876721456e+02
          4.199598034514e+02 0.000000000000e+00 -7.845705989675e+02
          4.004430644013e+02 0.000000000000e+00 -7.847574973478e+02
          3.811361182161e+02 0.000000000000e+00 -7.848981103935e+02
          3.619796119706e+02 0.000000000000e+00 -7.846164265927e+02
          3.423612123603e+02 0.000000000000e+00 -7.832642636233e+02
          3.356964467694e+02 0.000000000000e+00 -7.645973852583e+02
          3.329339228469e+02 0.000000000000e+00 -7.475816478493e+02
          3.538797216508e+02 0.000000000000e+00 -7.677982970816e+02
          3.475950323774e+02 0.000000000000e+00 -7.522208132870e+02
          3.720441698710e+02 0.000000000000e+00 -7.686154070159e+02
          3.336407881172e+02 0.000000000000e+00 -7.322960396356e+02
          3.435251722588e+02 0.000000000000e+00 -7.400416486948e+02
          3.636048632092e+02 0.000000000000e+00 -7.533007451338e+02
          3.558936964441e+02 0.000000000000e+00 -7.397780979431e+02
          3.907258231156e+02 0.000000000000e+00 -7.682871543844e+02
          3.809654611700e+02 0.000000000000e+00 -7.526307450844e+02
          4.100366488803e+02 0.000000000000e+00 -7.677024544515e+02
          3.997715098830e+02 0.000000000000e+00 -7.509976973161e+02
          4.297118360601e+02 0.000000000000e+00 -7.674241577881e+02
          4.494349688205e+02 0.000000000000e+00 -7.674246451431e+02
          4.690852588468e+02 0.000000000000e+00 -7.675101544431e+02
          4.886653900961e+02 0.000000000000e+00 -7.675790351862e+02
          5.082269457369e+02 0.000000000000e+00 -7.675592987545e+02
          5.278357469593e+02 0.000000000000e+00 -7.674504432013e+02
          5.475232299175e+02 0.000000000000e+00 -7.673070692226e+02
          5.672692909357e+02 0.000000000000e+00 -7.672063994790e+02
          5.870153655529e+02 0.000000000000e+00 -7.671988767152e+02
          6.067030402453e+02 0.000000000000e+00 -7.672779540214e+02
          6.263069000841e+02 0.000000000000e+00 -7.674026078473e+02
          6.458366730240e+02 0.000000000000e+00 -7.675311086545e+02
          6.653244800271e+02 0.000000000000e+00 -7.676281753037e+02
          6.848142994380e+02 0.000000000000e+00 -7.676721900098e+02
          7.043350355865e+02 0.000000000000e+00 -7.676867637448e+02
          7.238641906440e+02 0.000000000000e+00 -7.677166827123e+02
          7.433501982843e+02 0.000000000000e+00 -7.677275207429e+02
          7.627925039034e+02 0.000000000000e+00 -7.676016887862e+02
          7.822983506513e+02 0.000000000000e+00 -7.672330049925e+02
          8.020967855026e+02 0.000000000000e+00 -7.665949585156e+02
          8.225369110334e+02 0.000000000000e+00 -7.658250051065e+02
          4.196534471042e+02 0.000000000000e+00 -7.501147678301e+02
          4.396441246073e+02 0.000000000000e+00 -7.502422583090e+02
          4.594023686050e+02 0.000000000000e+00 -7.504340954881e+02
          4.789921979906e+02 0.000000000000e+00 -7.506667303047e+02
          4.984675995840e+02 0.000000000000e+00 -7.507200416351e+02
          5.179945998648e+02 0.000000000000e+00 -7.505594725613e+02
          5.376836985127e+02 0.000000000000e+00 -7.502639297299e+02
          5.575443802179e+02 0.000000000000e+00 -7.499869672362e+02
          5.774784781540e+02 0.000000000000e+00 -7.498901247517e+02
          5.973396263306e+02 0.000000000000e+00 -7.500076867334e+02
          6.170385249656e+02 0.000000000000e+00 -7.502446104309e+02
          6.365736787524e+02 0.000000000000e+00 -7.505048401032e+02
          6.559882264691e+02 0.000000000000e+00 -7.507253221305e+02
          6.753513991667e+02 0.000000000000e+00 -7.508394066907e+02
          6.947668443940e+02 0.000000000000e+00 -7.508079924709e+02
          7.142731742805e+02 0.000000000000e+00 -7.507821430468e+02
          7.337481293871e+02 0.000000000000e+00 -7.508831827884e+02
          7.530712148664e+02 0.000000000000e+00 -7.508937152091e+02
          7.722958074827e+02 0.000000000000e+00 -7.505615492600e+02
          7.916632884707e+02 0.000000000000e+00 -7.497451512470e+02
          8.116152441770e+02 0.000000000000e+00 -7.483928803655e+02
          3.712438346368e+02 0.000000000000e+00 -7.385363598577e+02
          3.372141539467e+02 0.000000000000e+00 -7.168115215334e+02
          3.475212927199e+02 0.000000000000e+00 -7.281515776230e+02
          3.618392926683e+02 0.000000000000e+00 -7.261712616233e+02
          3.423613400596e+02 0.000000000000e+00 -7.000387711127e+02
          3.473140389677e+02 0.000000000000e+00 -6.813381497175e+02
          3.508124133595e+02 0.000000000000e+00 -6.612662276776e+02
          3.711782810190e+02 0.000000000000e+00 -6.519283622300e+02
          8.440160832991e+02 0.000000000000e+00 -7.654727274699e+02
          8.329351507277e+02 0.000000000000e+00 -7.465878719221e+02
          3.884237529036e+02 0.000000000000e+00 -7.358588746301e+02
          3.767369640757e+02 0.000000000000e+00 -7.232479646874e+02
          4.088602370376e+02 0.000000000000e+00 -7.312713625801e+02
          4.299338322460e+02 0.000000000000e+00 -7.330140912432e+02
          4.497593969570e+02 0.000000000000e+00 -7.330799943752e+02
          4.695174606653e+02 0.000000000000e+00 -7.337583291724e+02
          4.888141891334e+02 0.000000000000e+00 -7.340689103514e+02
          5.080866639153e+02 0.000000000000e+00 -7.339135748202e+02
          5.276256731918e+02 0.000000000000e+00 -7.334249073399e+02
          5.475439087189e+02 0.000000000000e+00 -7.327979795499e+02
          5.677645950295e+02 0.000000000000e+00 -7.324021341625e+02
          5.879828973749e+02 0.000000000000e+00 -7.325220394176e+02
          6.079170450712e+02 0.000000000000e+00 -7.329547983849e+02
          6.275327253647e+02 0.000000000000e+00 -7.334202018250e+02
          6.469080455590e+02 0.000000000000e+00 -7.338405355165e+02
          6.661069415489e+02 0.000000000000e+00 -7.341410365605e+02
          6.852529262274e+02 0.000000000000e+00 -7.341554541963e+02
          7.046648821188e+02 0.000000000000e+00 -7.337402913237e+02
          7.242813289206e+02 0.000000000000e+00 -7.338121127183e+02
          7.436103261902e+02 0.000000000000e+00 -7.342528762140e+02
          7.625632883006e+02 0.000000000000e+00 -7.341663163733e+02
          7.813247862510e+02 0.000000000000e+00 -7.335272269631e+02
          8.003077037744e+02 0.000000000000e+00 -7.319594799138e+02
          8.201201013749e+02 0.000000000000e+00 -7.294764105734e+02
          8.654039892036e+02 0.000000000000e+00 -7.678073475957e+02
          3.529919105718e+02 0.000000000000e+00 -7.136386678351e+02
          3.666457365109e+02 0.000000000000e+00 -7.134485253664e+02
          3.623832618949e+02 0.000000000000e+00 -6.970666106842e+02
          8.814156825412e+02 0.000000000000e+00 -7.532746028416e+02
          8.805275308362e+02 0.000000000000e+00 -7.316582319334e+02
          8.815112978857e+02 0.000000000000e+00 -7.103516868660e+02
          8.821185258515e+02 0.000000000000e+00 -6.899843491321e+02
          8.818455885583e+02 0.000000000000e+00 -6.695403888758e+02
          8.825735135273e+02 0.000000000000e+00 -6.487518970199e+02
          8.464849108534e+02 0.000000000000e+00 -6.377517581040e+02
          8.248851901931e+02 0.000000000000e+00 -6.381986057562e+02
          8.039019190338e+02 0.000000000000e+00 -6.370994842795e+02
          7.840391603710e+02 0.000000000000e+00 -6.355146164196e+02
          7.652094972323e+02 0.000000000000e+00 -6.340703236073e+02
          7.469802839381e+02 0.000000000000e+00 -6.333614263940e+02
          7.287740496308e+02 0.000000000000e+00 -6.334656891932e+02
          7.101379846451e+02 0.000000000000e+00 -6.340885132761e+02
          6.909368095136e+02 0.000000000000e+00 -6.346206382619e+02
          6.714496122024e+02 0.000000000000e+00 -6.346154880666e+02
          6.520523571104e+02 0.000000000000e+00 -6.342533518397e+02
          6.328699712095e+02 0.000000000000e+00 -6.338433665208e+02
          6.138815841722e+02 0.000000000000e+00 -6.334647474708e+02
          5.950897427665e+02 0.000000000000e+00 -6.331504222790e+02
          5.764795469835e+02 0.000000000000e+00 -6.329904244909e+02
          5.579168295097e+02 0.000000000000e+00 -6.331016742888e+02
          5.391776216039e+02 0.000000000000e+00 -6.334821384903e+02
          5.201037425250e+02 0.000000000000e+00 -6.340008421967e+02
          5.006589688329e+02 0.000000000000e+00 -6.344978560381e+02
          4.809739684370e+02 0.000000000000e+00 -6.346796062739e+02
          4.613767387253e+02 0.000000000000e+00 -6.343807383306e+02
          4.421004275344e+02 0.000000000000e+00 -6.339439223686e+02
          4.230135505240e+02 0.000000000000e+00 -6.337479940874e+02
          4.037375282509e+02 0.000000000000e+00 -6.337828508793e+02
          3.839385152443e+02 0.000000000000e+00 -6.335304070877e+02
          8.582006673222e+02 0.000000000000e+00 -7.443134637212e+02
          8.410827753299e+02 0.000000000000e+00 -7.259304162984e+02
          8.619855899647e+02 0.000000000000e+00 -7.194085362226e+02
          8.643795199715e+02 0.000000000000e+00 -6.986333559631e+02
          8.461692733235e+02 0.000000000000e+00 -7.055696252877e+02
          8.649224456986e+02 0.000000000000e+00 -6.791372540393e+02
          8.495148285509e+02 0.000000000000e+00 -6.874242560260e+02
          8.614179810730e+02 0.000000000000e+00 -6.572934697203e+02
          8.502064491221e+02 0.000000000000e+00 -6.720944923643e+02
          8.367435281274e+02 0.000000000000e+00 -6.593961380610e+02
          8.132521286379e+02 0.000000000000e+00 -6.570575607913e+02
          7.919873181380e+02 0.000000000000e+00 -6.545541907851e+02
          7.727703167178e+02 0.000000000000e+00 -6.512470148836e+02
          7.551770887202e+02 0.000000000000e+00 -6.492139145523e+02
          7.380275761700e+02 0.000000000000e+00 -6.488527338916e+02
          7.203462184464e+02 0.000000000000e+00 -6.498756206960e+02
          7.014287972436e+02 0.000000000000e+00 -6.515904130480e+02
          6.814242662164e+02 0.000000000000e+00 -6.521635068680e+02
          6.614579333935e+02 0.000000000000e+00 -6.514124104748e+02
          6.420317066743e+02 0.000000000000e+00 -6.506750327987e+02
          6.229229476277e+02 0.000000000000e+00 -6.500216956847e+02
          6.040915463029e+02 0.000000000000e+00 -6.494037650467e+02
          5.856427444467e+02 0.000000000000e+00 -6.488552220808e+02
          5.675505247399e+02 0.000000000000e+00 -6.486895986918e+02
          5.493834358522e+02 0.000000000000e+00 -6.491724384759e+02
          5.306831384574e+02 0.000000000000e+00 -6.500663578454e+02
          5.113379378548e+02 0.000000000000e+00 -6.510796556637e+02
          4.912668214749e+02 0.000000000000e+00 -6.521042226548e+02
          4.709043543996e+02 0.000000000000e+00 -6.519446736836e+02
          4.512200909973e+02 0.000000000000e+00 -6.507676163050e+02
          4.323436918803e+02 0.000000000000e+00 -6.500864480077e+02
          4.135912975965e+02 0.000000000000e+00 -6.501756930231e+02
          3.939989117742e+02 0.000000000000e+00 -6.509632456081e+02
          8.270377743936e+02 0.000000000000e+00 -7.102082391320e+02
          8.076974414638e+02 0.000000000000e+00 -7.137234755041e+02
          7.893662191991e+02 0.000000000000e+00 -7.167865002988e+02
          8.329669082879e+02 0.000000000000e+00 -6.918946174337e+02
          8.383911319651e+02 0.000000000000e+00 -6.773875777587e+02
          8.224895662694e+02 0.000000000000e+00 -6.762363937367e+02
          7.716632625651e+02 0.000000000000e+00 -7.177954106127e+02
          7.533019251376e+02 0.000000000000e+00 -7.177929622097e+02
          7.345920278025e+02 0.000000000000e+00 -7.177938623634e+02
          7.147380084504e+02 0.000000000000e+00 -7.152776493395e+02
          6.946786640963e+02 0.000000000000e+00 -7.175423280865e+02
          6.760068932690e+02 0.000000000000e+00 -7.179011946676e+02
          6.572166352874e+02 0.000000000000e+00 -7.175108402013e+02
          6.381015622035e+02 0.000000000000e+00 -7.169143651819e+02
          6.186910091098e+02 0.000000000000e+00 -7.162313669589e+02
          5.988974473162e+02 0.000000000000e+00 -7.154232693726e+02
          5.784211260110e+02 0.000000000000e+00 -7.145007835142e+02
          5.574878307514e+02 0.000000000000e+00 -7.146920329868e+02
          5.370051504823e+02 0.000000000000e+00 -7.159602530499e+02
          5.173004420436e+02 0.000000000000e+00 -7.170111588213e+02
          4.982195446538e+02 0.000000000000e+00 -7.177082486253e+02
          4.795538666903e+02 0.000000000000e+00 -7.177208098794e+02
          4.605726589523e+02 0.000000000000e+00 -7.166854421362e+02
          4.394960183276e+02 0.000000000000e+00 -7.144252366821e+02
          8.141307348461e+02 0.000000000000e+00 -6.947133249009e+02
          7.951271813153e+02 0.000000000000e+00 -6.992018216557e+02
          7.799416452381e+02 0.000000000000e+00 -7.044475898224e+02
          7.633179405641e+02 0.000000000000e+00 -6.999257912255e+02
          7.993732472172e+02 0.000000000000e+00 -6.770935642774e+02
          7.783881309398e+02 0.000000000000e+00 -6.694741103311e+02
          7.800909189274e+02 0.000000000000e+00 -6.884863872637e+02
          7.615857727560e+02 0.000000000000e+00 -6.647066762864e+02
          7.642851301101e+02 0.000000000000e+00 -6.807615873508e+02
          7.462693158851e+02 0.000000000000e+00 -6.629784619435e+02
          7.523738339931e+02 0.000000000000e+00 -6.744726603994e+02
          7.497697507114e+02 0.000000000000e+00 -6.874016342374e+02
          7.439085674247e+02 0.000000000000e+00 -7.026474014844e+02
          7.304472927996e+02 0.000000000000e+00 -6.640764844694e+02
          7.397829438789e+02 0.000000000000e+00 -6.763758553393e+02
          7.347491856067e+02 0.000000000000e+00 -6.900067897967e+02
          7.275995303393e+02 0.000000000000e+00 -7.027904378118e+02
          7.249476872293e+02 0.000000000000e+00 -6.791435145819e+02
          7.223334331470e+02 0.000000000000e+00 -6.914448783238e+02
          7.151848211373e+02 0.000000000000e+00 -6.994090222541e+02
          7.020876317672e+02 0.000000000000e+00 -7.016927451476e+02
          6.853140673227e+02 0.000000000000e+00 -7.024952391672e+02
          7.131403011125e+02 0.000000000000e+00 -6.670314110637e+02
          7.090993317329e+02 0.000000000000e+00 -6.857289016489e+02
          6.934394142740e+02 0.000000000000e+00 -6.896352893758e+02
          6.924883071134e+02 0.000000000000e+00 -6.716815393346e+02
          6.706628986617e+02 0.000000000000e+00 -6.690703309242e+02
          6.781367748957e+02 0.000000000000e+00 -6.865666353953e+02
          6.509446448964e+02 0.000000000000e+00 -6.677654595835e+02
          6.316880074016e+02 0.000000000000e+00 -6.668233119651e+02
          6.126642107398e+02 0.000000000000e+00 -6.659365460723e+02
          6.674661066349e+02 0.000000000000e+00 -7.016751491874e+02
          6.593722354374e+02 0.000000000000e+00 -6.849233365296e+02
          6.486684166126e+02 0.000000000000e+00 -7.007673501513e+02
          6.402302306648e+02 0.000000000000e+00 -6.838148781536e+02
          6.294919152574e+02 0.000000000000e+00 -6.998944321744e+02
          6.210374174598e+02 0.000000000000e+00 -6.828268882715e+02
          5.940114278529e+02 0.000000000000e+00 -6.649248433575e+02
          6.018822431720e+02 0.000000000000e+00 -6.816449171924e+02
          6.100404898019e+02 0.000000000000e+00 -6.989099043284e+02
          5.901043918893e+02 0.000000000000e+00 -6.974664770882e+02
          5.831069563556e+02 0.000000000000e+00 -6.798191101596e+02
          5.763021039931e+02 0.000000000000e+00 -6.638157380365e+02
          5.680146793555e+02 0.000000000000e+00 -6.944569792691e+02
          5.679501190690e+02 0.000000000000e+00 -6.764763175585e+02
          5.592753546539e+02 0.000000000000e+00 -6.639926494779e+02
          5.459014026198e+02 0.000000000000e+00 -6.979464334794e+02
          5.527820706715e+02 0.000000000000e+00 -6.801597570308e+02
          5.259448164701e+02 0.000000000000e+00 -6.998236971614e+02
          5.414433745174e+02 0.000000000000e+00 -6.654983198074e+02
          5.338836817162e+02 0.000000000000e+00 -6.824649447515e+02
          5.067701205386e+02 0.000000000000e+00 -7.012418262266e+02
          5.224672162464e+02 0.000000000000e+00 -6.670262541983e+02
          5.146022210505e+02 0.000000000000e+00 -6.842667868244e+02
          4.887141694247e+02 0.000000000000e+00 -7.023767665368e+02
          4.714534471930e+02 0.000000000000e+00 -7.018478232669e+02
          5.027313121681e+02 0.000000000000e+00 -6.687460673117e+02
          4.957176107181e+02 0.000000000000e+00 -6.863063936878e+02
          4.536449796806e+02 0.000000000000e+00 -6.993720570333e+02
          4.809267489458e+02 0.000000000000e+00 -6.717335354060e+02
          4.805057554081e+02 0.000000000000e+00 -6.895420983229e+02
          4.596191443590e+02 0.000000000000e+00 -6.680925312481e+02
          4.656921466856e+02 0.000000000000e+00 -6.855018831963e+02
          4.409543842963e+02 0.000000000000e+00 -6.662188695815e+02
          4.479866370801e+02 0.000000000000e+00 -6.824650419820e+02
          4.231976271892e+02 0.000000000000e+00 -6.656734224625e+02
          4.313549995246e+02 0.000000000000e+00 -6.802460521284e+02
          4.366474937622e+02 0.000000000000e+00 -6.953733341634e+02
          4.053198334333e+02 0.000000000000e+00 -6.667685071039e+02
          4.156558984930e+02 0.000000000000e+00 -6.805041518230e+02
          4.237006765701e+02 0.000000000000e+00 -6.912104141799e+02
          4.237095382341e+02 0.000000000000e+00 -7.044961951603e+02
          4.222122098065e+02 0.000000000000e+00 -7.189593118043e+02
          3.862984494150e+02 0.000000000000e+00 -6.695514808452e+02
          3.665821957488e+02 0.000000000000e+00 -6.750128139135e+02
          3.815509063016e+02 0.000000000000e+00 -6.888717825786e+02
          3.793039785763e+02 0.000000000000e+00 -7.069777100420e+02
          3.992479785492e+02 0.000000000000e+00 -6.836629478933e+02
          3.955474249248e+02 0.000000000000e+00 -7.008110272126e+02
          4.111533467428e+02 0.000000000000e+00 -6.953807997624e+02
          4.090760740000e+02 0.000000000000e+00 -7.115470390552e+02
          3.929900582999e+02 0.000000000000e+00 -7.182927189860e+02
          0.000000000000e+00 0.000000000000e+00 -7.205757937067e+02
          0.000000000000e+00 0.000000000000e+00 -7.408045225322e+02
          0.000000000000e+00 0.000000000000e+00 -7.610332513578e+02
          0.000000000000e+00 0.000000000000e+00 -7.812619801833e+02
          0.000000000000e+00 0.000000000000e+00 -8.014907090089e+02
          1.942881930531e+01 0.000000000000e+00 -8.014908486206e+02
          3.885763861062e+01 0.000000000000e+00 -8.014909882324e+02
          5.828645791593e+01 0.000000000000e+00 -8.014911278441e+02
          7.771527722124e+01 0.000000000000e+00 -8.014912674558e+02
          9.714409652655e+01 0.000000000000e+00 -8.014914070676e+02
          1.165729158319e+02 0.000000000000e+00 -8.014915466793e+02
          1.360017351372e+02 0.000000000000e+00 -8.014916862910e+02
          1.554305544425e+02 0.000000000000e+00 -8.014918259028e+02
          1.748593737478e+02 0.000000000000e+00 -8.014919655145e+02
          1.942881930531e+02 0.000000000000e+00 -8.014921051263e+02
          2.137170123584e+02 0.000000000000e+00 -8.014922447380e+02
          2.331458316637e+02 0.000000000000e+00 -8.014923843497e+02
          2.525746509690e+02 0.000000000000e+00 -8.014925239615e+02
          1.294913608755e+01 0.000000000000e+00 -7.136697242010e+02
          1.297043526099e+01 0.000000000000e+00 -7.884031158560e+02
          2.590050691822e+02 0.000000000000e+00 -7.856829074490e+02
          2.905952676118e+01 0.000000000000e+00 -7.167954138277e+02
          2.907090601332e+01 0.000000000000e+00 -7.856104770841e+02
          2.422984035036e+02 0.000000000000e+00 -7.867756187700e+02
          1.639295361129e+01 0.000000000000e+00 -7.721139154786e+02
          1.640671070882e+01 0.000000000000e+00 -7.302416422849e+02
          2.622904423189e+02 0.000000000000e+00 -7.686041345736e+02
          2.492827711462e+02 0.000000000000e+00 -7.745293667892e+02
          2.244979173135e+02 0.000000000000e+00 -7.858008015778e+02
          2.352372049287e+02 0.000000000000e+00 -7.717408000520e+02
          2.052056238953e+02 0.000000000000e+00 -7.845573142447e+02
          1.851286585702e+02 0.000000000000e+00 -7.843068192311e+02
          1.654483046981e+02 0.000000000000e+00 -7.852584107509e+02
          1.464439262980e+02 0.000000000000e+00 -7.856664766527e+02
          1.261699574488e+02 0.000000000000e+00 -7.838604667143e+02
          1.067291904854e+02 0.000000000000e+00 -7.865018211272e+02
          8.754052697670e+01 0.000000000000e+00 -7.846021301458e+02
          6.799764831094e+01 0.000000000000e+00 -7.859629599962e+02
          4.868893966066e+01 0.000000000000e+00 -7.850046416760e+02
          2.631770214347e+02 0.000000000000e+00 -7.492702696650e+02
          2.475410385062e+02 0.000000000000e+00 -7.599195069823e+02
          2.625652668946e+02 0.000000000000e+00 -7.245760925426e+02
          2.392729743321e+02 0.000000000000e+00 -7.199779852564e+02
          2.447702468680e+02 0.000000000000e+00 -7.407572491256e+02
          2.195624235935e+02 0.000000000000e+00 -7.177392488634e+02
          2.008038728170e+02 0.000000000000e+00 -7.164666812457e+02
          1.823765104619e+02 0.000000000000e+00 -7.159885334198e+02
          1.636584769825e+02 0.000000000000e+00 -7.164287063321e+02
          1.443844571482e+02 0.000000000000e+00 -7.167420312449e+02
          1.250452505507e+02 0.000000000000e+00 -7.164773785472e+02
          1.060192408193e+02 0.000000000000e+00 -7.162320566920e+02
          8.727547069515e+01 0.000000000000e+00 -7.162138047116e+02
          6.846645352503e+01 0.000000000000e+00 -7.167885024074e+02
          4.883326774296e+01 0.000000000000e+00 -7.177826833752e+02
          3.828869727189e+01 0.000000000000e+00 -7.382634191269e+02
          3.817133077721e+01 0.000000000000e+00 -7.650312936872e+02
          1.820721493553e+01 0.000000000000e+00 -7.512517965877e+02
          2.172763143255e+02 0.000000000000e+00 -7.688341947317e+02
          2.304094692905e+02 0.000000000000e+00 -7.546979335537e+02
          2.255439416314e+02 0.000000000000e+00 -7.361854853272e+02
          2.071284946673e+02 0.000000000000e+00 -7.331770231058e+02
          1.897341203407e+02 0.000000000000e+00 -7.312105683695e+02
          2.119371696547e+02 0.000000000000e+00 -7.508325309656e+02
          1.948930893897e+02 0.000000000000e+00 -7.466734117203e+02
          1.961679535540e+02 0.000000000000e+00 -7.654654468385e+02
          1.727027324329e+02 0.000000000000e+00 -7.310570768481e+02
          1.801871247312e+02 0.000000000000e+00 -7.438563459034e+02
          1.839048593238e+02 0.000000000000e+00 -7.554858597719e+02
          1.746468570794e+02 0.000000000000e+00 -7.675463302555e+02
          1.538442587620e+02 0.000000000000e+00 -7.339232385776e+02
          1.661616497931e+02 0.000000000000e+00 -7.447814934494e+02
          1.734364846403e+02 0.000000000000e+00 -7.538301259325e+02
          1.338581527185e+02 0.000000000000e+00 -7.326805642076e+02
          1.148387632735e+02 0.000000000000e+00 -7.322132027397e+02
          9.648732224601e+01 0.000000000000e+00 -7.314659782845e+02
          7.889066995234e+01 0.000000000000e+00 -7.317833554597e+02
          6.066614534680e+01 0.000000000000e+00 -7.339873239078e+02
          5.684005785411e+01 0.000000000000e+00 -7.524552736297e+02
          5.984225830203e+01 0.000000000000e+00 -7.702682487185e+02
          7.281059099024e+01 0.000000000000e+00 -7.465526453230e+02
          7.144500705123e+01 0.000000000000e+00 -7.602053714282e+02
          7.604336143008e+01 0.000000000000e+00 -7.726392343011e+02
          8.780958176660e+01 0.000000000000e+00 -7.452554036887e+02
          8.140755942181e+01 0.000000000000e+00 -7.551151525514e+02
          8.192112170193e+01 0.000000000000e+00 -7.637066567796e+02
          8.765173662219e+01 0.000000000000e+00 -7.707390319344e+02
          9.968450509070e+01 0.000000000000e+00 -7.729386221681e+02
          1.042394182260e+02 0.000000000000e+00 -7.466347924526e+02
          9.319807636550e+01 0.000000000000e+00 -7.594601746790e+02
          1.097526427222e+02 0.000000000000e+00 -7.615888759221e+02
          1.133833681902e+02 0.000000000000e+00 -7.743026794604e+02
          1.234793383121e+02 0.000000000000e+00 -7.493525041292e+02
          1.246286320243e+02 0.000000000000e+00 -7.664421729415e+02
          1.395145430466e+02 0.000000000000e+00 -7.707632206701e+02
          1.354895403667e+02 0.000000000000e+00 -7.585347329437e+02
          1.415642611002e+02 0.000000000000e+00 -7.470020432331e+02
          1.544136961169e+02 0.000000000000e+00 -7.484327820219e+02
          1.482215000773e+02 0.000000000000e+00 -7.588717397431e+02
          1.560856587007e+02 0.000000000000e+00 -7.709336351936e+02
          1.621686021543e+02 0.000000000000e+00 -7.574069262956e+02
          0.000000000000e+00 0.000000000000e+00 -8.211691642851e+02
          0.000000000000e+00 0.000000000000e+00 -8.408476195614e+02
          0.000000000000e+00 0.000000000000e+00 -8.605260748376e+02
          0.000000000000e+00 0.000000000000e+00 -8.802045301139e+02
          0.000000000000e+00 0.000000000000e+00 -8.998829853901e+02
          0.000000000000e+00 0.000000000000e+00 -9.195614406664e+02
          0.000000000000e+00 0.000000000000e+00 -9.392398959426e+02
          0.000000000000e+00 0.000000000000e+00 -9.589183512189e+02
          0.000000000000e+00 0.000000000000e+00 -9.785968064951e+02
          0.000000000000e+00 0.000000000000e+00 -9.982752617714e+02
          1.977559540068e+01 0.000000000000e+00 -9.982744611116e+02
          3.955119080136e+01 0.000000000000e+00 -9.982736604518e+02
          5.932678620204e+01 0.000000000000e+00 -9.982728597920e+02
          7.910238160272e+01 0.000000000000e+00 -9.982720591321e+02
          9.887797700340e+01 0.000000000000e+00 -9.982712584723e+02
          1.186535724041e+02 0.000000000000e+00 -9.982704578125e+02
          1.384291678048e+02 0.000000000000e+00 -9.982696571527e+02
          1.582047632054e+02 0.000000000000e+00 -9.982688564929e+02
          1.779803586061e+02 0.000000000000e+00 -9.982680558331e+02
          1.977559540068e+02 0.000000000000e+00 -9.982672551733e+02
          2.175315494075e+02 0.000000000000e+00 -9.982664545135e+02
          1.257641428775e+01 0.000000000000e+00 -9.854611423679e+02
          1.279140586617e+01 0.000000000000e+00 -8.143846539275e+02
          2.239857141004e+02 0.000000000000e+00 -9.826404908957e+02
          2.864702027641e+01 0.000000000000e+00 -8.174377877886e+02
          1.510669757366e+01 0.000000000000e+00 -9.698148135944e+02
          2.796653826197e+01 0.000000000000e+00 -9.823757773640e+02
          1.590338832970e+01 0.000000000000e+00 -8.303604652523e+02
          2.068337270335e+02 0.000000000000e+00 -9.835360382335e+02
          2.274268753198e+02 0.000000000000e+00 -9.658902885608e+02
          2.139925454734e+02 0.000000000000e+00 -9.713335195848e+02
          1.884691933975e+02 0.000000000000e+00 -9.825923148202e+02
          1.992456812810e+02 0.000000000000e+00 -9.681487883036e+02
          1.689076244114e+02 0.000000000000e+00 -9.818538373870e+02
          1.491365019772e+02 0.000000000000e+00 -9.817096828215e+02
          1.297000938510e+02 0.000000000000e+00 -9.815568467084e+02
          1.102769790896e+02 0.000000000000e+00 -9.807569421539e+02
          9.018848553707e+01 0.000000000000e+00 -9.794823357846e+02
          6.897503120237e+01 0.000000000000e+00 -9.783312041926e+02
          4.755935692405e+01 0.000000000000e+00 -9.793188279057e+02
          2.290610676606e+02 0.000000000000e+00 -9.474229647495e+02
          2.124348530914e+02 0.000000000000e+00 -9.564771129756e+02
          2.312223446710e+02 0.000000000000e+00 -9.274412859483e+02
          2.345653677112e+02 0.000000000000e+00 -9.071467685798e+02
          2.381379174207e+02 0.000000000000e+00 -8.871731701191e+02
          2.409653973159e+02 0.000000000000e+00 -8.668809951759e+02
          2.435221407069e+02 0.000000000000e+00 -8.451820221713e+02
          2.476833018409e+02 0.000000000000e+00 -8.228015494114e+02
          2.232265061810e+02 0.000000000000e+00 -8.266207687780e+02
          2.007013126478e+02 0.000000000000e+00 -8.198537076410e+02
          1.830348493137e+02 0.000000000000e+00 -8.169657778022e+02
          1.651673429927e+02 0.000000000000e+00 -8.171624721218e+02
          1.462214326215e+02 0.000000000000e+00 -8.179620881305e+02
          1.266245506955e+02 0.000000000000e+00 -8.183822377534e+02
          1.070101137189e+02 0.000000000000e+00 -8.182685592785e+02
          8.764133884739e+01 0.000000000000e+00 -8.181188871668e+02
          6.825117884391e+01 0.000000000000e+00 -8.183509637633e+02
          4.829943047935e+01 0.000000000000e+00 -8.187721215201e+02
          2.224936794637e+02 0.000000000000e+00 -8.534027999632e+02
          2.011777005712e+02 0.000000000000e+00 -8.421000865403e+02
          1.886381985164e+02 0.000000000000e+00 -8.304338459690e+02
          1.744490704364e+02 0.000000000000e+00 -8.313423488287e+02
          2.217476501985e+02 0.000000000000e+00 -8.747794272072e+02
          2.185679029670e+02 0.000000000000e+00 -8.941260037688e+02
          2.134412685022e+02 0.000000000000e+00 -9.146815389287e+02
          1.569238085150e+02 0.000000000000e+00 -8.336886362137e+02
          2.112344200718e+02 0.000000000000e+00 -9.365936393331e+02
          1.684485838430e+01 0.000000000000e+00 -9.504457360516e+02
          1.736202276026e+01 0.000000000000e+00 -9.301105330367e+02
          1.717495886773e+01 0.000000000000e+00 -9.099345406693e+02
          1.698243913290e+01 0.000000000000e+00 -8.901453177853e+02
          1.709878994070e+01 0.000000000000e+00 -8.704103070677e+02
          1.736462200450e+01 0.000000000000e+00 -8.501926846188e+02
          3.665420260612e+01 0.000000000000e+00 -8.381781857689e+02
          1.801302108192e+02 0.000000000000e+00 -9.654863827705e+02
          1.936048515356e+02 0.000000000000e+00 -9.494713387272e+02
          1.371386853889e+02 0.000000000000e+00 -8.355091619115e+02
          1.168200057192e+02 0.000000000000e+00 -8.355262363869e+02
          9.733127700381e+01 0.000000000000e+00 -8.345818817410e+02
          7.850081530314e+01 0.000000000000e+00 -8.345448763873e+02
          5.916594707903e+01 0.000000000000e+00 -8.357321711805e+02
          3.319489104717e+01 0.000000000000e+00 -9.631617590566e+02
          3.534176508729e+01 0.000000000000e+00 -9.415409722416e+02
          3.475694520737e+01 0.000000000000e+00 -9.200866928689e+02
          3.392100372540e+01 0.000000000000e+00 -8.999808571509e+02
          3.370859975711e+01 0.000000000000e+00 -8.806086749150e+02
          3.457801542699e+01 0.000000000000e+00 -8.609037220929e+02
          5.272196775948e+01 0.000000000000e+00 -8.539524842553e+02
          7.067425669089e+01 0.000000000000e+00 -8.506677492141e+02
          4.999635894256e+01 0.000000000000e+00 -8.721929646428e+02
          6.540618474245e+01 0.000000000000e+00 -8.661806952847e+02
          4.974280686897e+01 0.000000000000e+00 -8.901998733687e+02
          6.394007715138e+01 0.000000000000e+00 -8.814999330607e+02
          8.808991377387e+01 0.000000000000e+00 -8.498746040049e+02
          8.033277290045e+01 0.000000000000e+00 -8.638095926413e+02
          7.494456675629e+01 0.000000000000e+00 -8.750991633501e+02
          5.118832524331e+01 0.000000000000e+00 -9.091145757018e+02
          6.579298326826e+01 0.000000000000e+00 -8.980018145251e+02
          7.792127129131e+01 0.000000000000e+00 -8.874744942767e+02
          1.060550087295e+02 0.000000000000e+00 -8.511572500992e+02
          9.579902630941e+01 0.000000000000e+00 -8.644924666775e+02
          8.726700232600e+01 0.000000000000e+00 -8.765968113745e+02
          5.354902364991e+01 0.000000000000e+00 -9.300318121246e+02
          6.944145766672e+01 0.000000000000e+00 -9.165559445394e+02
          8.268756668236e+01 0.000000000000e+00 -9.032782871773e+02
          5.632165914623e+01 0.000000000000e+00 -9.555599365598e+02
          8.138673665791e+01 0.000000000000e+00 -9.591365145137e+02
          1.026375134311e+02 0.000000000000e+00 -9.621339181920e+02
          1.218064048925e+02 0.000000000000e+00 -9.647922926303e+02
          7.431790412573e+01 0.000000000000e+00 -9.374448961239e+02
          8.928997822623e+01 0.000000000000e+00 -9.215167023002e+02
          1.401280815203e+02 0.000000000000e+00 -9.654878823362e+02
          1.596449114335e+02 0.000000000000e+00 -9.647702109822e+02
          9.607586407872e+01 0.000000000000e+00 -9.418662131089e+02
          1.163748398366e+02 0.000000000000e+00 -9.466963432388e+02
          1.320286201112e+02 0.000000000000e+00 -9.520195040818e+02
          1.487038548038e+02 0.000000000000e+00 -9.479783601184e+02
          1.268288014819e+02 0.000000000000e+00 -8.551912682297e+02
          9.309832780813e+01 0.000000000000e+00 -8.904036702658e+02
          1.016522298844e+02 0.000000000000e+00 -8.782701656568e+02
          1.115560951565e+02 0.000000000000e+00 -8.671847008652e+02
          1.008070039517e+02 0.000000000000e+00 -9.056797382192e+02
          1.126619220474e+02 0.000000000000e+00 -9.241845965762e+02
          1.333354146458e+02 0.000000000000e+00 -9.350322618325e+02
          1.084613786840e+02 0.000000000000e+00 -8.910044909309e+02
          1.138811582454e+02 0.000000000000e+00 -8.797746887142e+02
          1.251932304398e+02 0.000000000000e+00 -8.740750886269e+02
          1.188704595913e+02 0.000000000000e+00 -9.035080429310e+02
          1.341082398343e+02 0.000000000000e+00 -9.147831419492e+02
          1.226200707898e+02 0.000000000000e+00 -8.881612044372e+02
          1.347132378612e+02 0.000000000000e+00 -8.969752868733e+02
          1.493966646685e+02 0.000000000000e+00 -8.522037187085e+02
          1.416549541577e+02 0.000000000000e+00 -8.704673932221e+02
          1.346657177123e+02 0.000000000000e+00 -8.834277009246e+02
          1.690731146882e+02 0.000000000000e+00 -8.478658909100e+02
          1.837128156637e+02 0.000000000000e+00 -8.418813418587e+02
          1.709869835726e+02 0.000000000000e+00 -9.460353991866e+02
          1.875989759519e+02 0.000000000000e+00 -9.240368161740e+02
          1.973262569929e+02 0.000000000000e+00 -8.986899596578e+02
          2.059691643423e+02 0.000000000000e+00 -8.822303491561e+02
          2.041010082978e+02 0.000000000000e+00 -8.648149965400e+02
          1.851302929552e+02 0.000000000000e+00 -8.576312424434e+02
          1.879258193310e+02 0.000000000000e+00 -8.786840051158e+02
          1.562697391784e+02 0.000000000000e+00 -9.243812704791e+02
          1.489046672225e+02 0.000000000000e+00 -9.043821298782e+02
          1.491534288313e+02 0.000000000000e+00 -8.873367844604e+02
          1.702696089572e+02 0.000000000000e+00 -8.982777446200e+02
          1.646617945557e+02 0.000000000000e+00 -8.703575755998e+02
          0.000000000000e+00 0.000000000000e+00 -1.018447735594e+03
          0.000000000000e+00 0.000000000000e+00 -1.038620209417e+03
          0.000000000000e+00 0.000000000000e+00 -1.058792683240e+03
          0.000000000000e+00 0.000000000000e+00 -1.078965157063e+03
          0.000000000000e+00 0.000000000000e+00 -1.099137630886e+03
          0.000000000000e+00 0.000000000000e+00 -1.119310104709e+03
          0.000000000000e+00 0.000000000000e+00 -1.139482578531e+03
          0.000000000000e+00 0.000000000000e+00 -1.159655052354e+03
          0.000000000000e+00 0.000000000000e+00 -1.179827526177e+03
          0.000000000000e+00 0.000000000000e+00 -1.200000000000e+03
          2.017542275930e+01 0.000000000000e+00 -1.200000000000e+03
          4.035084551861e+01 0.000000000000e+00 -1.200000000000e+03
          6.052626827791e+01 0.000000000000e+00 -1.200000000000e+03
          8.070169103721e+01 0.000000000000e+00 -1.200000000000e+03
          1.008771137965e+02 0.000000000000e+00 -1.200000000000e+03
          1.210525365558e+02 0.000000000000e+00 -1.200000000000e+03
          1.412279593151e+02 0.000000000000e+00 -1.200000000000e+03
          1.614033820744e+02 0.000000000000e+00 -1.200000000000e+03
          1.815788048337e+02 0.000000000000e+00 -1.200000000000e+03
          1.271416810311e+01 0.000000000000e+00 -1.186955073703e+03
          1.286728384942e+01 0.000000000000e+00 -1.011046587274e+03
          1.886340038638e+02 0.000000000000e+00 -1.184824030162e+03
          2.856767333983e+01 0.000000000000e+00 -1.013571193310e+03
          1.925816092060e+02 0.000000000000e+00 -1.169014593877e+03
          1.516346300345e+01 0.000000000000e+00 -1.171083750583e+03
          2.825426433789e+01 0.000000000000e+00 -1.183902482494e+03
          1.594695710505e+01 0.000000000000e+00 -1.026683292728e+03
          1.715173867804e+02 0.000000000000e+00 -1.184946824496e+03
          1.794743813621e+02 0.000000000000e+00 -1.173313308256e+03
          1.948766522123e+02 0.000000000000e+00 -1.151897559959e+03
          1.794086794664e+02 0.000000000000e+00 -1.159085137192e+03
          1.972638795310e+02 0.000000000000e+00 -1.133670327754e+03
          1.999713006754e+02 0.000000000000e+00 -1.114860385239e+03
          2.032534297713e+02 0.000000000000e+00 -1.095885413493e+03
          2.072056972899e+02 0.000000000000e+00 -1.077397728998e+03
          2.110199457790e+02 0.000000000000e+00 -1.059959681697e+03
          2.125652175445e+02 0.000000000000e+00 -1.042455741607e+03
          2.108363777679e+02 0.000000000000e+00 -1.020446357522e+03
          1.527990155324e+02 0.000000000000e+00 -1.182817213487e+03
          1.653412788133e+02 0.000000000000e+00 -1.168684019315e+03
          1.323674148789e+02 0.000000000000e+00 -1.181519591416e+03
          1.116918685359e+02 0.000000000000e+00 -1.181294700527e+03
          9.106047780874e+01 0.000000000000e+00 -1.180470459714e+03
          6.954897071207e+01 0.000000000000e+00 -1.179566887705e+03
          4.795700826716e+01 0.000000000000e+00 -1.180790277658e+03
          4.798865338989e+01 0.000000000000e+00 -1.015309257047e+03
          6.839024818273e+01 0.000000000000e+00 -1.015869486647e+03
          8.869538676189e+01 0.000000000000e+00 -1.015746430682e+03
          1.086543985486e+02 0.000000000000e+00 -1.015524527736e+03
          1.283847863915e+02 0.000000000000e+00 -1.015416513394e+03
          1.480130359634e+02 0.000000000000e+00 -1.015497479824e+03
          1.676490353506e+02 0.000000000000e+00 -1.015872611300e+03
          1.877012333479e+02 0.000000000000e+00 -1.016994477854e+03
          1.953812701201e+02 0.000000000000e+00 -1.035670176018e+03
          1.997013778136e+02 0.000000000000e+00 -1.050546936454e+03
          1.765883337261e+02 0.000000000000e+00 -1.033566655320e+03
          1.848678680502e+02 0.000000000000e+00 -1.050217583284e+03
          1.573502489079e+02 0.000000000000e+00 -1.032831949557e+03
          1.946529151709e+02 0.000000000000e+00 -1.064596127989e+03
          1.664938422775e+02 0.000000000000e+00 -1.050097912336e+03
          1.379454478267e+02 0.000000000000e+00 -1.032548720657e+03
          1.472444437124e+02 0.000000000000e+00 -1.049746739946e+03
          1.184380471026e+02 0.000000000000e+00 -1.032612345824e+03
          9.865790532164e+01 0.000000000000e+00 -1.033026735574e+03
          1.279941780513e+02 0.000000000000e+00 -1.049530612777e+03
          7.825811232202e+01 0.000000000000e+00 -1.033668765840e+03
          1.086894904342e+02 0.000000000000e+00 -1.049925641786e+03
          8.890189510235e+01 0.000000000000e+00 -1.050910603797e+03
          1.887681533614e+02 0.000000000000e+00 -1.082539661409e+03
          1.845114794457e+02 0.000000000000e+00 -1.102446882788e+03
          1.822382042074e+02 0.000000000000e+00 -1.122388237859e+03
          1.804454406189e+02 0.000000000000e+00 -1.141367137925e+03
          1.638994188115e+02 0.000000000000e+00 -1.150239967652e+03
          1.763221337018e+02 0.000000000000e+00 -1.067124329553e+03
          1.564497755490e+02 0.000000000000e+00 -1.067485211340e+03
          1.370092031556e+02 0.000000000000e+00 -1.066403841322e+03
          1.183498064620e+02 0.000000000000e+00 -1.066325012534e+03
          9.948734631164e+01 0.000000000000e+00 -1.067440465310e+03
          5.676254421761e+01 0.000000000000e+00 -1.034059120573e+03
          6.787349081781e+01 0.000000000000e+00 -1.052559578792e+03
          8.017029437632e+01 0.000000000000e+00 -1.069045190202e+03
          3.517634851198e+01 0.000000000000e+00 -1.031883966056e+03
          1.685797865895e+01 0.000000000000e+00 -1.151610113575e+03
          1.772562547799e+01 0.000000000000e+00 -1.131283084570e+03
          1.846274573729e+01 0.000000000000e+00 -1.110784393187e+03
          1.933699473840e+01 0.000000000000e+00 -1.089918959400e+03
          2.012689035796e+01 0.000000000000e+00 -1.068268324991e+03
          1.900134140216e+01 0.000000000000e+00 -1.046563591413e+03
          4.270194199114e+01 0.000000000000e+00 -1.055167564603e+03
          3.963326819095e+01 0.000000000000e+00 -1.080275134383e+03
          6.024862014242e+01 0.000000000000e+00 -1.072642721586e+03
          3.777169392595e+01 0.000000000000e+00 -1.102162573952e+03
          3.597874675507e+01 0.000000000000e+00 -1.122977021245e+03
          3.512729349649e+01 0.000000000000e+00 -1.143614770635e+03
          3.320509648847e+01 0.000000000000e+00 -1.164610877115e+03
          1.666346705748e+02 0.000000000000e+00 -1.088092759148e+03
          1.448613974670e+02 0.000000000000e+00 -1.083854337379e+03
          1.269553323746e+02 0.000000000000e+00 -1.081874304910e+03
          1.097337684491e+02 0.000000000000e+00 -1.083084430464e+03
          1.662464860406e+02 0.000000000000e+00 -1.111169104740e+03
          1.492805948626e+02 0.000000000000e+00 -1.102346125941e+03
          1.651164075920e+02 0.000000000000e+00 -1.130958507734e+03
          1.498188162947e+02 0.000000000000e+00 -1.120952569642e+03
          1.327754120260e+02 0.000000000000e+00 -1.097244786968e+03
          1.188947705990e+02 0.000000000000e+00 -1.094600436191e+03
          1.354300416258e+02 0.000000000000e+00 -1.112935776376e+03
          1.212598589733e+02 0.000000000000e+00 -1.108009197525e+03
          1.481969841529e+02 0.000000000000e+00 -1.139660075991e+03
          1.348357639942e+02 0.000000000000e+00 -1.128645282136e+03
          1.247623115261e+02 0.000000000000e+00 -1.120409531060e+03
          9.086706993930e+01 0.000000000000e+00 -1.085560469420e+03
          1.037493670078e+02 0.000000000000e+00 -1.102872915107e+03
          7.347915311370e+01 0.000000000000e+00 -1.085298604959e+03
          5.755620868614e+01 0.000000000000e+00 -1.093592677288e+03
          5.569636671311e+01 0.000000000000e+00 -1.115506316957e+03
          5.117726422407e+01 0.000000000000e+00 -1.134564349408e+03
          5.591508282203e+01 0.000000000000e+00 -1.156665742174e+03
          8.123182428170e+01 0.000000000000e+00 -1.159406846201e+03
          1.024449301597e+02 0.000000000000e+00 -1.162391132629e+03
          7.325118753808e+01 0.000000000000e+00 -1.134030866950e+03
          1.225115976911e+02 0.000000000000e+00 -1.163178824698e+03
          1.450929880555e+02 0.000000000000e+00 -1.161652695113e+03
          1.306483371803e+02 0.000000000000e+00 -1.145384547740e+03
          1.203797684858e+02 0.000000000000e+00 -1.132383407410e+03
          1.130502281756e+02 0.000000000000e+00 -1.146618371142e+03
          9.533131105446e+01 0.000000000000e+00 -1.143130983441e+03
          1.071374521047e+02 0.000000000000e+00 -1.133070374874e+03
          9.499401126058e+01 0.000000000000e+00 -1.123139514499e+03
          7.851345101300e+01 0.000000000000e+00 -1.105713093856e+03
          1.120415608541e+02 0.000000000000e+00 -1.119984220326e+03
          2.940618209744e+02 0.000000000000e+00 -9.044760296208e+02
          3.136082138462e+02 0.000000000000e+00 -9.044760287444e+02
          3.331546067180e+02 0.000000000000e+00 -9.044760278680e+02
          3.527009995897e+02 0.000000000000e+00 -9.044760269916e+02
          3.722473924615e+02 0.000000000000e+00 -9.044760261153e+02
          3.917937853333e+02 0.000000000000e+00 -9.044760252389e+02
          4.113401782051e+02 0.000000000000e+00 -9.044760243625e+02
          4.308865710769e+02 0.000000000000e+00 -9.044760234861e+02
          4.504329639487e+02 0.000000000000e+00 -9.044760226097e+02
          4.699793568205e+02 0.000000000000e+00 -9.044760217334e+02
          4.895257496923e+02 0.000000000000e+00 -9.044760208570e+02
          5.090721425641e+02 0.000000000000e+00 -9.044760199806e+02
          5.286185354359e+02 0.000000000000e+00 -9.044760191042e+02
          5.481649283077e+02 0.000000000000e+00 -9.044760182278e+02
          5.677113211795e+02 0.000000000000e+00 -9.044760173514e+02
          5.872577140513e+02 0.000000000000e+00 -9.044760164751e+02
          6.068041069231e+02 0.000000000000e+00 -9.044760155987e+02
          6.263504997949e+02 0.000000000000e+00 -9.044760147223e+02
          6.458968926667e+02 0.000000000000e+00 -9.044760138459e+02
          6.654432855385e+02 0.000000000000e+00 -9.044760129695e+02
          6.849896784103e+02 0.000000000000e+00 -9.044760120931e+02
          7.045360712821e+02 0.000000000000e+00 -9.044760112168e+02
          7.240824641538e+02 0.000000000000e+00 -9.044760103404e+02
          7.436288570256e+02 0.000000000000e+00 -9.044760094640e+02
          7.631752498974e+02 0.000000000000e+00 -9.044760085876e+02
          7.827216427692e+02 0.000000000000e+00 -9.044760077112e+02
          8.022680356410e+02 0.000000000000e+00 -9.044760068348e+02
          8.218144285128e+02 0.000000000000e+00 -9.044760059585e+02
          8.413608213846e+02 0.000000000000e+00 -9.044760050821e+02
          8.609072142564e+02 0.000000000000e+00 -9.044760042057e+02
          8.804536071282e+02 0.000000000000e+00 -9.044760033293e+02
          9.000000000000e+02 0.000000000000e+00 -9.044760024529e+02
          9.000000000000e+02 0.000000000000e+00 -8.838798768421e+02
          9.000000000000e+02 0.000000000000e+00 -8.632837512313e+02
          9.000000000000e+02 0.000000000000e+00 -8.426876256205e+02
          9.000000000000e+02 0.000000000000e+00 -8.220915000096e+02
          8.869445609713e+02 0.000000000000e+00 -8.148109161590e+02
          8.869139944890e+02 0.000000000000e+00 -8.909005504496e+02
          3.057841704041e+02 0.000000000000e+00 -8.176270256069e+02
          8.706446617156e+02 0.000000000000e+00 -8.876878993937e+02
          8.707747710134e+02 0.000000000000e+00 -8.176283206801e+02
          3.226411733925e+02 0.000000000000e+00 -8.165526319946e+02
          8.835244330065e+02 0.000000000000e+00 -8.313704825343e+02
          8.834505288024e+02 0.000000000000e+00 -8.740030909920e+02
          3.024575180518e+02 0.000000000000e+00 -8.350273323041e+02
          3.156001560960e+02 0.000000000000e+00 -8.290309724205e+02
          3.405690344453e+02 0.000000000000e+00 -8.176293726654e+02
          3.297539646844e+02 0.000000000000e+00 -8.319639985928e+02
          3.599400332110e+02 0.000000000000e+00 -8.190453213331e+02
          3.799775317318e+02 0.000000000000e+00 -8.194686843002e+02
          3.998694629822e+02 0.000000000000e+00 -8.191413332048e+02
          4.196383907753e+02 0.000000000000e+00 -8.190278916779e+02
          4.394170441970e+02 0.000000000000e+00 -8.188960587321e+02
          4.591320737793e+02 0.000000000000e+00 -8.187914880975e+02
          4.788015632457e+02 0.000000000000e+00 -8.187216870747e+02
          4.984442705395e+02 0.000000000000e+00 -8.186800458962e+02
          5.180702203030e+02 0.000000000000e+00 -8.186583165641e+02
          5.376854750786e+02 0.000000000000e+00 -8.186496556223e+02
          5.572932391553e+02 0.000000000000e+00 -8.186486343092e+02
          5.768948318738e+02 0.000000000000e+00 -8.186520442529e+02
          5.964918251396e+02 0.000000000000e+00 -8.186576043904e+02
          6.160848549722e+02 0.000000000000e+00 -8.186635535641e+02
          6.356740022602e+02 0.000000000000e+00 -8.186688872924e+02
          6.552598053802e+02 0.000000000000e+00 -8.186720566919e+02
          6.748450526355e+02 0.000000000000e+00 -8.186719748002e+02
          6.944336132381e+02 0.000000000000e+00 -8.186670136692e+02
          7.140305486094e+02 0.000000000000e+00 -8.186552635912e+02
          7.336449820955e+02 0.000000000000e+00 -8.186351865188e+02
          7.532841055228e+02 0.000000000000e+00 -8.186059243327e+02
          7.729277064263e+02 0.000000000000e+00 -8.185736200000e+02
          7.924946857439e+02 0.000000000000e+00 -8.186662332476e+02
          8.131081027298e+02 0.000000000000e+00 -8.200708860906e+02
          8.322760333645e+02 0.000000000000e+00 -8.173194860870e+02
          8.512105964511e+02 0.000000000000e+00 -8.181993818475e+02
          3.015404599193e+02 0.000000000000e+00 -8.547233924244e+02
          3.173419385487e+02 0.000000000000e+00 -8.439504328906e+02
          3.021293998482e+02 0.000000000000e+00 -8.798529111817e+02
          3.256577308036e+02 0.000000000000e+00 -8.846072936973e+02
          3.201152353286e+02 0.000000000000e+00 -8.634867886328e+02
          3.455092389253e+02 0.000000000000e+00 -8.869882794996e+02
          3.643031742307e+02 0.000000000000e+00 -8.883772431282e+02
          3.826902022347e+02 0.000000000000e+00 -8.888269577375e+02
          4.013370847045e+02 0.000000000000e+00 -8.884426721941e+02
          4.205933035380e+02 0.000000000000e+00 -8.879170070968e+02
          4.401887658214e+02 0.000000000000e+00 -8.876184438644e+02
          4.598284792033e+02 0.000000000000e+00 -8.874603106725e+02
          4.794533913604e+02 0.000000000000e+00 -8.873751511728e+02
          4.990609165254e+02 0.000000000000e+00 -8.873295970668e+02
          5.186553846203e+02 0.000000000000e+00 -8.873070934168e+02
          5.382406631360e+02 0.000000000000e+00 -8.872989916252e+02
          5.578192913165e+02 0.000000000000e+00 -8.872996255815e+02
          5.773922831996e+02 0.000000000000e+00 -8.873044244665e+02
          5.969600033741e+02 0.000000000000e+00 -8.873109423210e+02
          6.165226265388e+02 0.000000000000e+00 -8.873179515077e+02
          6.360811957319e+02 0.000000000000e+00 -8.873242947275e+02
          6.556374919424e+02 0.000000000000e+00 -8.873287009246e+02
          6.751933810382e+02 0.000000000000e+00 -8.873298110745e+02
          6.947518753903e+02 0.000000000000e+00 -8.873262200095e+02
          7.143191649411e+02 0.000000000000e+00 -8.873172906347e+02
          7.339061939676e+02 0.000000000000e+00 -8.873061257912e+02
          7.535257507584e+02 0.000000000000e+00 -8.873076589430e+02
          7.731618991629e+02 0.000000000000e+00 -8.873692977913e+02
          7.926354695631e+02 0.000000000000e+00 -8.876030177746e+02
          8.117522371675e+02 0.000000000000e+00 -8.878304668169e+02
          8.308230997652e+02 0.000000000000e+00 -8.874876409918e+02
          8.506758296145e+02 0.000000000000e+00 -8.866069766856e+02
          8.614322642382e+02 0.000000000000e+00 -8.657249974405e+02
          8.617194572595e+02 0.000000000000e+00 -8.384662197743e+02
          8.816887324602e+02 0.000000000000e+00 -8.525873681042e+02
          3.477896819478e+02 0.000000000000e+00 -8.351263431162e+02
          3.345821414213e+02 0.000000000000e+00 -8.494260554198e+02
          3.394551509674e+02 0.000000000000e+00 -8.683076609598e+02
          3.578499768241e+02 0.000000000000e+00 -8.716103227278e+02
          3.749219331916e+02 0.000000000000e+00 -8.738027795537e+02
          3.530711305577e+02 0.000000000000e+00 -8.536532952965e+02
          3.699487374914e+02 0.000000000000e+00 -8.584190784269e+02
          3.916551812617e+02 0.000000000000e+00 -8.733103831898e+02
          3.832257173959e+02 0.000000000000e+00 -8.621578106261e+02
          3.688740401887e+02 0.000000000000e+00 -8.389428211062e+02
          3.818767326753e+02 0.000000000000e+00 -8.502247970232e+02
          3.895979140577e+02 0.000000000000e+00 -8.365793348510e+02
          4.100676774032e+02 0.000000000000e+00 -8.715913912636e+02
          3.978349966798e+02 0.000000000000e+00 -8.549448154918e+02
          4.092471946550e+02 0.000000000000e+00 -8.366874607369e+02
          4.192758107184e+02 0.000000000000e+00 -8.540061493458e+02
          4.293606518015e+02 0.000000000000e+00 -8.363838596346e+02
          4.492499585043e+02 0.000000000000e+00 -8.361405775666e+02
          4.690106259717e+02 0.000000000000e+00 -8.359810913277e+02
          4.298494299386e+02 0.000000000000e+00 -8.708638389242e+02
          4.394253738692e+02 0.000000000000e+00 -8.535280092053e+02
          4.496395541899e+02 0.000000000000e+00 -8.705074067087e+02
          4.592674901887e+02 0.000000000000e+00 -8.532614187177e+02
          4.693584523983e+02 0.000000000000e+00 -8.703175855772e+02
          4.789962218324e+02 0.000000000000e+00 -8.531078441307e+02
          4.890285247207e+02 0.000000000000e+00 -8.702138502641e+02
          4.887088438391e+02 0.000000000000e+00 -8.358861468505e+02
          4.986751078290e+02 0.000000000000e+00 -8.530231581193e+02
          5.086684707607e+02 0.000000000000e+00 -8.701594760432e+02
          5.282874308237e+02 0.000000000000e+00 -8.701332524623e+02
          5.478944888648e+02 0.000000000000e+00 -8.701269514661e+02
          5.674915309151e+02 0.000000000000e+00 -8.701307418926e+02
          5.870800269964e+02 0.000000000000e+00 -8.701391256612e+02
          6.066597224979e+02 0.000000000000e+00 -8.701498420247e+02
          6.262314715181e+02 0.000000000000e+00 -8.701606423600e+02
          6.457987237645e+02 0.000000000000e+00 -8.701691473488e+02
          6.653644700695e+02 0.000000000000e+00 -8.701733315634e+02
          6.849315089274e+02 0.000000000000e+00 -8.701707534360e+02
          7.045080996871e+02 0.000000000000e+00 -8.701593964315e+02
          7.241101534772e+02 0.000000000000e+00 -8.701396395081e+02
          7.437662380327e+02 0.000000000000e+00 -8.701197315090e+02
          7.635232921788e+02 0.000000000000e+00 -8.701312886900e+02
          7.833991978068e+02 0.000000000000e+00 -8.702949577483e+02
          8.025102408645e+02 0.000000000000e+00 -8.712824139010e+02
          8.204475892137e+02 0.000000000000e+00 -8.717899892614e+02
          8.388598039277e+02 0.000000000000e+00 -8.698719790765e+02
          8.429477409061e+02 0.000000000000e+00 -8.510037069680e+02
          8.404340026324e+02 0.000000000000e+00 -8.328791327400e+02
          8.268149447003e+02 0.000000000000e+00 -8.567653791658e+02
          8.284134141321e+02 0.000000000000e+00 -8.425241014316e+02
          8.260344348289e+02 0.000000000000e+00 -8.299124523156e+02
          8.119118429864e+02 0.000000000000e+00 -8.577030734344e+02
          8.183115819699e+02 0.000000000000e+00 -8.479385681267e+02
          8.159460721018e+02 0.000000000000e+00 -8.368722724987e+02
          8.013407031844e+02 0.000000000000e+00 -8.349409680453e+02
          8.084836108677e+02 0.000000000000e+00 -8.460029105967e+02
          7.831163241408e+02 0.000000000000e+00 -8.355491302937e+02
          5.083673077543e+02 0.000000000000e+00 -8.358342664591e+02
          5.183233529949e+02 0.000000000000e+00 -8.529819617448e+02
          5.280030138173e+02 0.000000000000e+00 -8.358102083718e+02
          5.379502025768e+02 0.000000000000e+00 -8.529652911874e+02
          5.476237338069e+02 0.000000000000e+00 -8.358029505460e+02
          5.672342352335e+02 0.000000000000e+00 -8.358041266504e+02
          5.575625822164e+02 0.000000000000e+00 -8.529643863947e+02
          5.771660520751e+02 0.000000000000e+00 -8.529694633836e+02
          5.967607858030e+02 0.000000000000e+00 -8.529788979445e+02
          5.868332627438e+02 0.000000000000e+00 -8.358127466317e+02
          6.064290141582e+02 0.000000000000e+00 -8.358219948793e+02
          6.163439266347e+02 0.000000000000e+00 -8.529909701882e+02
          6.260162308492e+02 0.000000000000e+00 -8.358315138384e+02
          6.456004177847e+02 0.000000000000e+00 -8.358389199296e+02
          6.359198434937e+02 0.000000000000e+00 -8.530009724007e+02
          6.554959797991e+02 0.000000000000e+00 -8.530075016829e+02
          6.750718081537e+02 0.000000000000e+00 -8.530081387010e+02
          6.651763623769e+02 0.000000000000e+00 -8.358405860666e+02
          6.847601392213e+02 0.000000000000e+00 -8.358374947318e+02
          6.946504231893e+02 0.000000000000e+00 -8.529990653936e+02
          7.142512106431e+02 0.000000000000e+00 -8.529800495814e+02
          7.043512952018e+02 0.000000000000e+00 -8.358238913865e+02
          7.239689910554e+02 0.000000000000e+00 -8.358002604455e+02
          7.436344314456e+02 0.000000000000e+00 -8.357631855424e+02
          7.338952602671e+02 0.000000000000e+00 -8.529505892593e+02
          7.536408378526e+02 0.000000000000e+00 -8.529136921631e+02
          7.736600877616e+02 0.000000000000e+00 -8.528619067272e+02
          7.633766532170e+02 0.000000000000e+00 -8.357085516029e+02
          7.949168289867e+02 0.000000000000e+00 -8.526563297357e+02
          2.595505588235e+02 0.000000000000e+00 -1.099410000420e+03
          2.789581176471e+02 0.000000000000e+00 -1.099410000839e+03
          2.983656764706e+02 0.000000000000e+00 -1.099410001259e+03
          3.177732352941e+02 0.000000000000e+00 -1.099410001678e+03
          3.371807941176e+02 0.000000000000e+00 -1.099410002098e+03
          3.565883529412e+02 0.000000000000e+00 -1.099410002518e+03
          3.759959117647e+02 0.000000000000e+00 -1.099410002937e+03
          3.954034705882e+02 0.000000000000e+00 -1.099410003357e+03
          4.148110294118e+02 0.000000000000e+00 -1.099410003776e+03
          4.342185882353e+02 0.000000000000e+00 -1.099410004196e+03
          4.536261470588e+02 0.000000000000e+00 -1.099410004616e+03
          4.730337058824e+02 0.000000000000e+00 -1.099410005035e+03
          4.924412647059e+02 0.000000000000e+00 -1.099410005455e+03
          5.118488235294e+02 0.000000000000e+00 -1.099410005874e+03
          5.312563823529e+02 0.000000000000e+00 -1.099410006294e+03
          5.506639411765e+02 0.000000000000e+00 -1.099410006714e+03
          5.700715000000e+02 0.000000000000e+00 -1.099410007133e+03
          5.894790588235e+02 0.000000000000e+00 -1.099410007553e+03
          6.088866176471e+02 0.000000000000e+00 -1.099410007973e+03
          6.282941764706e+02 0.000000000000e+00 -1.099410008392e+03
          6.477017352941e+02 0.000000000000e+00 -1.099410008812e+03
          6.671092941176e+02 0.000000000000e+00 -1.099410009231e+03
          6.865168529412e+02 0.000000000000e+00 -1.099410009651e+03
          7.059244117647e+02 0.000000000000e+00 -1.099410010071e+03
          7.253319705882e+02 0.000000000000e+00 -1.099410010490e+03
          7.447395294118e+02 0.000000000000e+00 -1.099410010910e+03
          7.641470882353e+02 0.000000000000e+00 -1.099410011329e+03
          7.835546470588e+02 0.000000000000e+00 -1.099410011749e+03
          8.029622058824e+02 0.000000000000e+00 -1.099410012169e+03
          8.223697647059e+02 0.000000000000e+00 -1.099410012588e+03
          8.417773235294e+02 0.000000000000e+00 -1.099410013008e+03
          8.611848823529e+02 0.000000000000e+00 -1.099410013427e+03
          8.805924411765e+02 0.000000000000e+00 -1.099410013847e+03
          9.000000000000e+02 0.000000000000e+00 -1.099410014267e+03
          9.000000000000e+02 0.000000000000e+00 -1.079916613085e+03
          9.000000000000e+02 0.000000000000e+00 -1.060423211904e+03
          9.000000000000e+02 0.000000000000e+00 -1.040929810723e+03
          9.000000000000e+02 0.000000000000e+00 -1.021436409541e+03
          9.000000000000e+02 0.000000000000e+00 -1.001943008360e+03
          9.000000000000e+02 0.000000000000e+00 -9.824496071784e+02
          9.000000000000e+02 0.000000000000e+00 -9.629562059970e+02
          9.000000000000e+02 0.000000000000e+00 -9.434628048157e+02
          9.000000000000e+02 0.000000000000e+00 -9.239694036343e+02
          8.875697646903e+02 0.000000000000e+00 -9.171679106439e+02
          8.872362996683e+02 0.000000000000e+00 -1.086619975002e+03
          2.875864856439e+02 0.000000000000e+00 -9.199438377392e+02
          8.714171303889e+02 0.000000000000e+00 -1.083575019930e+03
          8.850715265843e+02 0.000000000000e+00 -9.326624845905e+02
          8.723631962912e+02 0.000000000000e+00 -9.202173902616e+02
          8.841498298277e+02 0.000000000000e+00 -1.070772985816e+03
          3.044457858557e+02 0.000000000000e+00 -9.190718005540e+02
          2.841092911040e+02 0.000000000000e+00 -9.364920079825e+02
          2.972818004090e+02 0.000000000000e+00 -9.311058262821e+02
          3.224738000812e+02 0.000000000000e+00 -9.200891380006e+02
          3.116161997283e+02 0.000000000000e+00 -9.342656416469e+02
          3.417905851728e+02 0.000000000000e+00 -9.210701185416e+02
          3.616871514877e+02 0.000000000000e+00 -9.215590464197e+02
          3.816388071326e+02 0.000000000000e+00 -9.216261955239e+02
          4.014025538392e+02 0.000000000000e+00 -9.215066180304e+02
          4.209745850415e+02 0.000000000000e+00 -9.214119526756e+02
          4.404644819924e+02 0.000000000000e+00 -9.214218674373e+02
          4.599775372127e+02 0.000000000000e+00 -9.214993167216e+02
          4.795578340375e+02 0.000000000000e+00 -9.215724532851e+02
          4.991871935219e+02 0.000000000000e+00 -9.215894845807e+02
          5.188159266080e+02 0.000000000000e+00 -9.215437286642e+02
          5.384039286399e+02 0.000000000000e+00 -9.214690267630e+02
          5.579456376463e+02 0.000000000000e+00 -9.214130845423e+02
          5.774672955510e+02 0.000000000000e+00 -9.214063207158e+02
          5.970041730187e+02 0.000000000000e+00 -9.214401298253e+02
          6.165713199931e+02 0.000000000000e+00 -9.214702905894e+02
          6.361515785166e+02 0.000000000000e+00 -9.214598259169e+02
          6.557208822765e+02 0.000000000000e+00 -9.214186726957e+02
          6.752848419738e+02 0.000000000000e+00 -9.213830677423e+02
          6.948788953919e+02 0.000000000000e+00 -9.213641690219e+02
          7.145186415643e+02 0.000000000000e+00 -9.213174198900e+02
          7.341041888688e+02 0.000000000000e+00 -9.211466761621e+02
          7.533863364832e+02 0.000000000000e+00 -9.208653938013e+02
          7.722912173771e+02 0.000000000000e+00 -9.209068820443e+02
          7.912780333615e+02 0.000000000000e+00 -9.216950870755e+02
          8.110011333375e+02 0.000000000000e+00 -9.229852183454e+02
          8.318886671071e+02 0.000000000000e+00 -9.241646765931e+02
          8.530149408160e+02 0.000000000000e+00 -9.232221078788e+02
          2.824332784721e+02 0.000000000000e+00 -9.547017017055e+02
          2.986312944139e+02 0.000000000000e+00 -9.456906647749e+02
          2.803658102894e+02 0.000000000000e+00 -9.744629793244e+02
          2.771765234908e+02 0.000000000000e+00 -9.946446314650e+02
          2.735936421108e+02 0.000000000000e+00 -1.014478939042e+03
          2.707288976726e+02 0.000000000000e+00 -1.034529326809e+03
          2.682988888662e+02 0.000000000000e+00 -1.055992141144e+03
          2.643219877878e+02 0.000000000000e+00 -1.078226703826e+03
          2.885384444487e+02 0.000000000000e+00 -1.074209918547e+03
          3.111869807760e+02 0.000000000000e+00 -1.080727785265e+03
          3.290959271822e+02 0.000000000000e+00 -1.083679812706e+03
          3.469342803629e+02 0.000000000000e+00 -1.083711219701e+03
          3.656055099227e+02 0.000000000000e+00 -1.082890766998e+03
          3.850602986616e+02 0.000000000000e+00 -1.082089371970e+03
          4.049190357568e+02 0.000000000000e+00 -1.081910063772e+03
          4.246887031398e+02 0.000000000000e+00 -1.082171933028e+03
          4.442364653769e+02 0.000000000000e+00 -1.082423790759e+03
          4.636892874409e+02 0.000000000000e+00 -1.082556679473e+03
          4.830998699412e+02 0.000000000000e+00 -1.082672637973e+03
          5.023849316887e+02 0.000000000000e+00 -1.082836822282e+03
          5.214838623085e+02 0.000000000000e+00 -1.082928275160e+03
          5.405459014766e+02 0.000000000000e+00 -1.082762379154e+03
          5.598098398953e+02 0.000000000000e+00 -1.082491193634e+03
          5.792739316005e+02 0.000000000000e+00 -1.082421329069e+03
          5.987523540536e+02 0.000000000000e+00 -1.082493480594e+03
          6.181462091158e+02 0.000000000000e+00 -1.082565838118e+03
          6.374399490516e+02 0.000000000000e+00 -1.082603725718e+03
          6.567216451747e+02 0.000000000000e+00 -1.082498086698e+03
          6.761578304868e+02 0.000000000000e+00 -1.082358157541e+03
          6.957341231015e+02 0.000000000000e+00 -1.082425341569e+03
          7.153043069663e+02 0.000000000000e+00 -1.082591866285e+03
          7.348532925980e+02 0.000000000000e+00 -1.082680436440e+03
          7.544224722144e+02 0.000000000000e+00 -1.082745477642e+03
          7.739459282247e+02 0.000000000000e+00 -1.082883443090e+03
          7.933130068868e+02 0.000000000000e+00 -1.083044529806e+03
          8.125380744621e+02 0.000000000000e+00 -1.083032203595e+03
          8.318789968240e+02 0.000000000000e+00 -1.082696353507e+03
          8.518022415210e+02 0.000000000000e+00 -1.082245860054e+03
          2.887820534693e+02 0.000000000000e+00 -1.047642896636e+03
          3.099222376790e+02 0.000000000000e+00 -1.058088825410e+03
          3.234625248511e+02 0.000000000000e+00 -1.069604750505e+03
          3.380464264759e+02 0.000000000000e+00 -1.069255379670e+03
          2.894563236011e+02 0.000000000000e+00 -1.026713793840e+03
          2.931238839650e+02 0.000000000000e+00 -1.007628944925e+03
          2.980269535168e+02 0.000000000000e+00 -9.869210058063e+02
          3.550874405450e+02 0.000000000000e+00 -1.067666529145e+03
          2.996920234821e+02 0.000000000000e+00 -9.650947374317e+02
          8.833566038497e+02 0.000000000000e+00 -9.518385678959e+02
          8.828427111609e+02 0.000000000000e+00 -9.719658728510e+02
          8.830140816964e+02 0.000000000000e+00 -9.919327906251e+02
          8.831783621704e+02 0.000000000000e+00 -1.011519880300e+03
          8.830266736710e+02 0.000000000000e+00 -1.031064309509e+03
          8.827235487391e+02 0.000000000000e+00 -1.051103645390e+03
          8.634791213904e+02 0.000000000000e+00 -1.062975067757e+03
          3.301644473578e+02 0.000000000000e+00 -9.371308346009e+02
          3.166760337661e+02 0.000000000000e+00 -9.524542664917e+02
          3.739609511386e+02 0.000000000000e+00 -1.065075210176e+03
          3.944808990409e+02 0.000000000000e+00 -1.063786914058e+03
          4.151083914365e+02 0.000000000000e+00 -1.064453143779e+03
          4.349286313242e+02 0.000000000000e+00 -1.065238278406e+03
          4.543958191742e+02 0.000000000000e+00 -1.065590016321e+03
          4.738731981637e+02 0.000000000000e+00 -1.065748975432e+03
          4.932699519090e+02 0.000000000000e+00 -1.066101736024e+03
          5.122031576389e+02 0.000000000000e+00 -1.066632275828e+03
          5.306467045316e+02 0.000000000000e+00 -1.066714311384e+03
          5.493548887238e+02 0.000000000000e+00 -1.065817594994e+03
          5.688552817136e+02 0.000000000000e+00 -1.065273263747e+03
          5.885514412914e+02 0.000000000000e+00 -1.065533197279e+03
          6.080308851034e+02 0.000000000000e+00 -1.065662596885e+03
          6.273213801615e+02 0.000000000000e+00 -1.065851311813e+03
          6.463152312726e+02 0.000000000000e+00 -1.065939199342e+03
          6.654976485508e+02 0.000000000000e+00 -1.065338335595e+03
          6.852981716512e+02 0.000000000000e+00 -1.065147160873e+03
          7.051622392677e+02 0.000000000000e+00 -1.065713140705e+03
          7.247862077933e+02 0.000000000000e+00 -1.065986752719e+03
          7.444832910434e+02 0.000000000000e+00 -1.066016944232e+03
          7.642712951133e+02 0.000000000000e+00 -1.066165963316e+03
          7.838230914156e+02 0.000000000000e+00 -1.066638642783e+03
          8.028786103923e+02 0.000000000000e+00 -1.067013301801e+03
          8.216525593098e+02 0.000000000000e+00 -1.066716577947e+03
          8.409934760138e+02 0.000000000000e+00 -1.065412974094e+03
          8.672084954912e+02 0.000000000000e+00 -9.392249497655e+02
          8.650882883303e+02 0.000000000000e+00 -9.606049721584e+02
          8.656428442331e+02 0.000000000000e+00 -9.818186281439e+02
          8.664219763696e+02 0.000000000000e+00 -1.001704774078e+03
          8.665652247202e+02 0.000000000000e+00 -1.020881518613e+03
          8.656236483222e+02 0.000000000000e+00 -1.040416989281e+03
          8.474982541721e+02 0.000000000000e+00 -1.047273851083e+03
          8.294757925690e+02 0.000000000000e+00 -1.050589854212e+03
          8.503154628410e+02 0.000000000000e+00 -1.029144178250e+03
          8.348271753387e+02 0.000000000000e+00 -1.035071760082e+03
          8.506767984775e+02 0.000000000000e+00 -1.011282891223e+03
          8.364224051379e+02 0.000000000000e+00 -1.019793021660e+03
          8.118761225762e+02 0.000000000000e+00 -1.051635605397e+03
          8.196253799287e+02 0.000000000000e+00 -1.037467012951e+03
          8.252078667255e+02 0.000000000000e+00 -1.026091278254e+03
          8.493480058055e+02 0.000000000000e+00 -9.925536454700e+02
          8.347402583482e+02 0.000000000000e+00 -1.003368609268e+03
          8.223491216022e+02 0.000000000000e+00 -1.013610236140e+03
          7.937612742006e+02 0.000000000000e+00 -1.051131036775e+03
          8.034326716137e+02 0.000000000000e+00 -1.036959622532e+03
          8.124313287203e+02 0.000000000000e+00 -1.024413908594e+03
          7.744936762872e+02 0.000000000000e+00 -1.049708328176e+03
          7.542751380070e+02 0.000000000000e+00 -1.049092265129e+03
          7.342151094297e+02 0.000000000000e+00 -1.049503609526e+03
          7.147055350262e+02 0.000000000000e+00 -1.049490592611e+03
          6.951891757893e+02 0.000000000000e+00 -1.048730732485e+03
          6.740864818430e+02 0.000000000000e+00 -1.046432233955e+03
          6.543916260467e+02 0.000000000000e+00 -1.049777618320e+03
          6.364368823402e+02 0.000000000000e+00 -1.049674373884e+03
          6.174394874114e+02 0.000000000000e+00 -1.048746909038e+03
          5.978431891375e+02 0.000000000000e+00 -1.048859224616e+03
          5.784341875659e+02 0.000000000000e+00 -1.048592464390e+03
          5.576243518945e+02 0.000000000000e+00 -1.046965464195e+03
          5.386014809068e+02 0.000000000000e+00 -1.050970332466e+03
          5.216806409692e+02 0.000000000000e+00 -1.051486090001e+03
          5.037929201697e+02 0.000000000000e+00 -1.049995434633e+03
          4.843645422003e+02 0.000000000000e+00 -1.048871630153e+03
          4.645675867943e+02 0.000000000000e+00 -1.048681575541e+03
          4.452458806718e+02 0.000000000000e+00 -1.048716162578e+03
          4.260364899828e+02 0.000000000000e+00 -1.047815921768e+03
          4.056780784020e+02 0.000000000000e+00 -1.045561348797e+03
          8.470967617730e+02 0.000000000000e+00 -9.718716746902e+02
          8.313254961898e+02 0.000000000000e+00 -9.849628613356e+02
          8.179412991809e+02 0.000000000000e+00 -9.977170576050e+02
          8.068374615020e+02 0.000000000000e+00 -1.010057200107e+03
          7.967230046397e+02 0.000000000000e+00 -1.022176521154e+03
          7.856806697592e+02 0.000000000000e+00 -1.034869446340e+03
          3.821933574769e+02 0.000000000000e+00 -1.043528333970e+03
          8.443956996833e+02 0.000000000000e+00 -9.466593393858e+02
          8.197501647038e+02 0.000000000000e+00 -9.429991608339e+02
          7.989736713587e+02 0.000000000000e+00 -9.399176321405e+02
          7.803657118587e+02 0.000000000000e+00 -9.372287744742e+02
          8.266740758658e+02 0.000000000000e+00 -9.643321702229e+02
          8.118661105300e+02 0.000000000000e+00 -9.795918924891e+02
          8.000863507917e+02 0.000000000000e+00 -9.943859490785e+02
          7.909823897870e+02 0.000000000000e+00 -1.007782120707e+03
          7.805171609866e+02 0.000000000000e+00 -1.018814186383e+03
          7.627944627618e+02 0.000000000000e+00 -9.365242158653e+02
          7.443501462957e+02 0.000000000000e+00 -9.374862220057e+02
          7.247551050209e+02 0.000000000000e+00 -9.380834275504e+02
          7.049139123472e+02 0.000000000000e+00 -9.381960172123e+02
          6.852199324248e+02 0.000000000000e+00 -9.382074488937e+02
          6.656413298798e+02 0.000000000000e+00 -9.382783595506e+02
          6.460620010567e+02 0.000000000000e+00 -9.384170992880e+02
          6.264213532931e+02 0.000000000000e+00 -9.385202335907e+02
          6.067729964180e+02 0.000000000000e+00 -9.384820768351e+02
          5.872074438903e+02 0.000000000000e+00 -9.383540200810e+02
          5.677279089619e+02 0.000000000000e+00 -9.382948949774e+02
          5.482453735326e+02 0.000000000000e+00 -9.383875607917e+02
          5.286608529001e+02 0.000000000000e+00 -9.385895876548e+02
          5.089379355666e+02 0.000000000000e+00 -9.387798799575e+02
          4.891406633454e+02 0.000000000000e+00 -9.388307007764e+02
          4.694067729744e+02 0.000000000000e+00 -9.386955750142e+02
          4.498512180972e+02 0.000000000000e+00 -9.384538031552e+02
          4.304670522792e+02 0.000000000000e+00 -9.382816493633e+02
          4.110837497648e+02 0.000000000000e+00 -9.383628721393e+02
          3.913937308286e+02 0.000000000000e+00 -9.387436288304e+02
          3.711475268684e+02 0.000000000000e+00 -9.390568710447e+02
          3.504776758233e+02 0.000000000000e+00 -9.386951011463e+02
          8.054508100408e+02 0.000000000000e+00 -9.596507618255e+02
          7.858811437467e+02 0.000000000000e+00 -9.546600575089e+02
          7.709157060287e+02 0.000000000000e+00 -9.493880801282e+02
          7.554866419250e+02 0.000000000000e+00 -9.529913028054e+02
          7.894178300913e+02 0.000000000000e+00 -9.761398941594e+02
          7.700373998573e+02 0.000000000000e+00 -9.652839203974e+02
          7.830843675972e+02 0.000000000000e+00 -9.946767953870e+02
          7.782483070450e+02 0.000000000000e+00 -1.006292214663e+03
          7.693183392581e+02 0.000000000000e+00 -9.843548927813e+02
          7.701929526340e+02 0.000000000000e+00 -9.987573703530e+02
          7.357240441755e+02 0.000000000000e+00 -9.550311685185e+02
          7.151931345093e+02 0.000000000000e+00 -9.550721135264e+02
          6.952636863698e+02 0.000000000000e+00 -9.549316682579e+02
          6.756881716821e+02 0.000000000000e+00 -9.549673722440e+02
          6.561780057315e+02 0.000000000000e+00 -9.552348308570e+02
          6.364953404194e+02 0.000000000000e+00 -9.556107085400e+02
          6.166464573216e+02 0.000000000000e+00 -9.557239763805e+02
          5.969197919208e+02 0.000000000000e+00 -9.554176847671e+02
          5.774732540636e+02 0.000000000000e+00 -9.551091411110e+02
          5.581430951330e+02 0.000000000000e+00 -9.551499765027e+02
          5.386769291016e+02 0.000000000000e+00 -9.555195993802e+02
          5.189076933876e+02 0.000000000000e+00 -9.560136975526e+02
          4.988512995892e+02 0.000000000000e+00 -9.563178906001e+02
          4.787527057581e+02 0.000000000000e+00 -9.562116162139e+02
          4.589417147153e+02 0.000000000000e+00 -9.557304982667e+02
          4.395855066421e+02 0.000000000000e+00 -9.551647362495e+02
          4.205601869114e+02 0.000000000000e+00 -9.549253218799e+02
          4.014376435775e+02 0.000000000000e+00 -9.553763576241e+02
          3.814399133109e+02 0.000000000000e+00 -9.566329280252e+02
          3.601157119087e+02 0.000000000000e+00 -9.571919107640e+02
          3.379148348962e+02 0.000000000000e+00 -9.562338105187e+02
          3.220695967240e+02 0.000000000000e+00 -9.763604171673e+02
          3.158794607860e+02 0.000000000000e+00 -1.003415465500e+03
          3.048174577190e+02 0.000000000000e+00 -1.019696385806e+03
          3.058945303181e+02 0.000000000000e+00 -1.036385854731e+03
          3.613665886770e+02 0.000000000000e+00 -1.050532646246e+03
          3.446538269568e+02 0.000000000000e+00 -1.054650043261e+03
          3.291017458606e+02 0.000000000000e+00 -1.056338507739e+03
          3.226455230970e+02 0.000000000000e+00 -1.041854507564e+03
          3.359965741955e+02 0.000000000000e+00 -1.044722539671e+03
          3.199012747087e+02 0.000000000000e+00 -1.024453976686e+03
          3.484567005099e+02 0.000000000000e+00 -1.039600785143e+03
          3.352656408521e+02 0.000000000000e+00 -1.031384467753e+03
          3.350856768778e+02 0.000000000000e+00 -1.014213941440e+03
          3.384175277598e+02 0.000000000000e+00 -9.949414186966e+02
          3.480258116726e+02 0.000000000000e+00 -9.756867348197e+02
          3.716570434233e+02 0.000000000000e+00 -9.770336430256e+02
          3.927400027956e+02 0.000000000000e+00 -9.725653125751e+02
          4.111576278366e+02 0.000000000000e+00 -9.711185646885e+02
          4.293339620820e+02 0.000000000000e+00 -9.712710352307e+02
          4.480731915394e+02 0.000000000000e+00 -9.723347932948e+02
          4.677437594722e+02 0.000000000000e+00 -9.735796380762e+02
          4.882695276148e+02 0.000000000000e+00 -9.742597081285e+02
          5.090314264072e+02 0.000000000000e+00 -9.740319786134e+02
          5.293235644121e+02 0.000000000000e+00 -9.730821704013e+02
          5.489057794169e+02 0.000000000000e+00 -9.720872146837e+02
          5.680058299880e+02 0.000000000000e+00 -9.716189215144e+02
          5.870275340458e+02 0.000000000000e+00 -9.718811190691e+02
          6.065899435528e+02 0.000000000000e+00 -9.730030669168e+02
          6.269115340533e+02 0.000000000000e+00 -9.733659175364e+02
          6.470603803880e+02 0.000000000000e+00 -9.724506663349e+02
          6.665274947546e+02 0.000000000000e+00 -9.716847670553e+02
          6.857895180177e+02 0.000000000000e+00 -9.713832119671e+02
          7.052971534780e+02 0.000000000000e+00 -9.715858856461e+02
          7.256629866616e+02 0.000000000000e+00 -9.723476754954e+02
          3.496778421140e+02 0.000000000000e+00 -1.023729980764e+03
          3.515759324619e+02 0.000000000000e+00 -1.007740826745e+03
          3.579908380842e+02 0.000000000000e+00 -9.925805896560e+02
          3.639563275159e+02 0.000000000000e+00 -1.032910351681e+03
          3.638805491449e+02 0.000000000000e+00 -1.016907568737e+03
          3.645199855820e+02 0.000000000000e+00 -1.004476968510e+03
          3.737828117175e+02 0.000000000000e+00 -9.958819352095e+02
          3.873977277336e+02 0.000000000000e+00 -9.890035741046e+02
          4.031179342305e+02 0.000000000000e+00 -9.862965197212e+02
          4.194903708129e+02 0.000000000000e+00 -9.862393035713e+02
          4.368990418303e+02 0.000000000000e+00 -9.877722260819e+02
          4.557629065278e+02 0.000000000000e+00 -9.904698120124e+02
          4.765748363550e+02 0.000000000000e+00 -9.925609950054e+02
          4.986700819912e+02 0.000000000000e+00 -9.930621701935e+02
          5.202713543410e+02 0.000000000000e+00 -9.917215735774e+02
          5.403354908404e+02 0.000000000000e+00 -9.893608804863e+02
          5.591812204200e+02 0.000000000000e+00 -9.879612159992e+02
          5.775432807634e+02 0.000000000000e+00 -9.876293171617e+02
          5.958735059177e+02 0.000000000000e+00 -9.885868264813e+02
          6.164317798722e+02 0.000000000000e+00 -9.931238267231e+02
          6.386044468076e+02 0.000000000000e+00 -9.903574727787e+02
          6.581294315502e+02 0.000000000000e+00 -9.884795360195e+02
          6.769072938467e+02 0.000000000000e+00 -9.875429202255e+02
          6.956771602740e+02 0.000000000000e+00 -9.874439870149e+02
          7.147485121161e+02 0.000000000000e+00 -9.881095193888e+02
          3.753858158196e+02 0.000000000000e+00 -1.009531752560e+03
          3.856755821149e+02 0.000000000000e+00 -1.002899490543e+03
          3.972477442535e+02 0.000000000000e+00 -9.994257766677e+02
          4.104713533113e+02 0.000000000000e+00 -9.993661683755e+02
          4.257838164670e+02 0.000000000000e+00 -1.001465594609e+03
          3.782274535287e+02 0.000000000000e+00 -1.023378580345e+03
          3.862008081724e+02 0.000000000000e+00 -1.013839783221e+03
          3.939343915621e+02 0.000000000000e+00 -1.009792447904e+03
          3.977348659075e+02 0.000000000000e+00 -1.023615766048e+03
          4.185291867274e+02 0.000000000000e+00 -1.030058426121e+03
          4.027506203150e+02 0.000000000000e+00 -1.009147404381e+03
          4.143192676944e+02 0.000000000000e+00 -1.013465712236e+03
          4.367923195636e+02 0.000000000000e+00 -1.032605684180e+03
          4.306279268149e+02 0.000000000000e+00 -1.017025275903e+03
          4.548740947430e+02 0.000000000000e+00 -1.032088142321e+03
          4.455073170974e+02 0.000000000000e+00 -1.019672836887e+03
          4.428336347841e+02 0.000000000000e+00 -1.004713011187e+03
          4.624167259411e+02 0.000000000000e+00 -1.011812468942e+03
          4.747993302603e+02 0.000000000000e+00 -1.030911849524e+03
          4.866269525581e+02 0.000000000000e+00 -1.012292754359e+03
          4.960301423406e+02 0.000000000000e+00 -1.031815086306e+03
          5.113563273453e+02 0.000000000000e+00 -1.013766074742e+03
          5.330891102081e+02 0.000000000000e+00 -1.007340584248e+03
          5.153315639578e+02 0.000000000000e+00 -1.035275080871e+03
          5.296145523142e+02 0.000000000000e+00 -1.025215969438e+03
          5.295907642049e+02 0.000000000000e+00 -1.039660719038e+03
          5.514667637397e+02 0.000000000000e+00 -1.004240818405e+03
          5.456636618417e+02 0.000000000000e+00 -1.020088407326e+03
          5.427615792300e+02 0.000000000000e+00 -1.035548489162e+03
          5.690657803921e+02 0.000000000000e+00 -1.003013594575e+03
          5.616501978394e+02 0.000000000000e+00 -1.017949590201e+03
          5.555133327841e+02 0.000000000000e+00 -1.030561256853e+03
          5.698994290533e+02 0.000000000000e+00 -1.032387854374e+03
          5.783935742452e+02 0.000000000000e+00 -1.017645279556e+03
          5.863320685609e+02 0.000000000000e+00 -1.002835884980e+03
          5.878291709785e+02 0.000000000000e+00 -1.032745795655e+03
          5.956998871025e+02 0.000000000000e+00 -1.017076814106e+03
          6.015454146774e+02 0.000000000000e+00 -1.003151332220e+03
          6.067441423648e+02 0.000000000000e+00 -1.032010184182e+03
          6.134795671330e+02 0.000000000000e+00 -1.014191758818e+03
          6.323435730760e+02 0.000000000000e+00 -1.009351947640e+03
          6.511565684666e+02 0.000000000000e+00 -1.005473099882e+03
          6.690569530482e+02 0.000000000000e+00 -1.003419354215e+03
          6.868785945070e+02 0.000000000000e+00 -1.002819662527e+03
          7.050447974001e+02 0.000000000000e+00 -1.003106263812e+03
          6.282368928928e+02 0.000000000000e+00 -1.030535704446e+03
          6.463956997889e+02 0.000000000000e+00 -1.022569202872e+03
          6.449082952667e+02 0.000000000000e+00 -1.037316665696e+03
          6.627927811607e+02 0.000000000000e+00 -1.018788106384e+03
          6.591367694411e+02 0.000000000000e+00 -1.034102935804e+03
          6.789656993815e+02 0.000000000000e+00 -1.017492058769e+03
          6.723551292959e+02 0.000000000000e+00 -1.029808847782e+03
          6.869370153870e+02 0.000000000000e+00 -1.032291731570e+03
          6.961449592736e+02 0.000000000000e+00 -1.017918477146e+03
          7.051427935693e+02 0.000000000000e+00 -1.033413634875e+03
          7.141912150226e+02 0.000000000000e+00 -1.018391776614e+03
          7.231011976028e+02 0.000000000000e+00 -1.003875099941e+03
          7.239125306727e+02 0.000000000000e+00 -1.033655291725e+03
          7.321243037394e+02 0.000000000000e+00 -1.018288813943e+03
          7.432171489450e+02 0.000000000000e+00 -1.032797788035e+03
          7.649116314986e+02 0.000000000000e+00 -1.030348115686e+03
          7.662798215821e+02 0.000000000000e+00 -1.011207626073e+03
          7.498378973704e+02 0.000000000000e+00 -1.015817211102e+03
          7.341822354412e+02 0.000000000000e+00 -9.901003065785e+02
          7.386251694357e+02 0.000000000000e+00 -1.005049401873e+03
          7.491881519307e+02 0.000000000000e+00 -9.739002609358e+02
          7.539452493141e+02 0.000000000000e+00 -9.970370392553e+02
          2.417707233017e+02 0.000000000000e+00 -1.200000000000e+03
          2.611304079105e+02 0.000000000000e+00 -1.200000000000e+03
          2.804900925193e+02 0.000000000000e+00 -1.200000000000e+03
          2.998497771280e+02 0.000000000000e+00 -1.200000000000e+03
          3.192094617368e+02 0.000000000000e+00 -1.200000000000e+03
          3.385691463456e+02 0.000000000000e+00 -1.200000000000e+03
          3.579288309544e+02 0.000000000000e+00 -1.200000000000e+03
          3.772885155631e+02 0.000000000000e+00 -1.200000000000e+03
          3.966482001719e+02 0.000000000000e+00 -1.200000000000e+03
          4.160078847807e+02 0.000000000000e+00 -1.200000000000e+03
          4.353675693895e+02 0.000000000000e+00 -1.200000000000e+03
          4.547272539982e+02 0.000000000000e+00 -1.200000000000e+03
          4.740869386070e+02 0.000000000000e+00 -1.200000000000e+03
          4.934466232158e+02 0.000000000000e+00 -1.200000000000e+03
          5.128063078245e+02 0.000000000000e+00 -1.200000000000e+03
          5.321659924333e+02 0.000000000000e+00 -1.200000000000e+03
          5.515256770421e+02 0.000000000000e+00 -1.200000000000e+03
          5.708853616509e+02 0.000000000000e+00 -1.200000000000e+03
          5.902450462596e+02 0.000000000000e+00 -1.200000000000e+03
          6.096047308684e+02 0.000000000000e+00 -1.200000000000e+03
          6.289644154772e+02 0.000000000000e+00 -1.200000000000e+03
          6.483241000860e+02 0.000000000000e+00 -1.200000000000e+03
          6.676837846947e+02 0.000000000000e+00 -1.200000000000e+03
          6.870434693035e+02 0.000000000000e+00 -1.200000000000e+03
          7.064031539123e+02 0.000000000000e+00 -1.200000000000e+03
          7.257628385210e+02 0.000000000000e+00 -1.200000000000e+03
          7.451225231298e+02 0.000000000000e+00 -1.200000000000e+03
          7.644822077386e+02 0.000000000000e+00 -1.200000000000e+03
          7.838418923474e+02 0.000000000000e+00 -1.200000000000e+03
          8.032015769561e+02 0.000000000000e+00 -1.200000000000e+03
          8.225612615649e+02 0.000000000000e+00 -1.200000000000e+03
          8.419209461737e+02 0.000000000000e+00 -1.200000000000e+03
          8.612806307825e+02 0.000000000000e+00 -1.200000000000e+03
          8.806403153912e+02 0.000000000000e+00 -1.200000000000e+03
          9.000000000000e+02 0.000000000000e+00 -1.200000000000e+03
          9.000000000000e+02 0.000000000000e+00 -1.179882002853e+03
          9.000000000000e+02 0.000000000000e+00 -1.159764005707e+03
          9.000000000000e+02 0.000000000000e+00 -1.139646008560e+03
          9.000000000000e+02 0.000000000000e+00 -1.119528011413e+03
          8.871725776701e+02 0.000000000000e+00 -1.186564497329e+03
          8.875552740741e+02 0.000000000000e+00 -1.112512840527e+03
          2.531123249538e+02 0.000000000000e+00 -1.115118988086e+03
          8.711881842269e+02 0.000000000000e+00 -1.183098236907e+03
          8.722754815552e+02 0.000000000000e+00 -1.115577578907e+03
          2.697585004798e+02 0.000000000000e+00 -1.114014769358e+03
          8.848948861960e+02 0.000000000000e+00 -1.128603439273e+03
          8.840127663555e+02 0.000000000000e+00 -1.169796312278e+03
          2.498396054944e+02 0.000000000000e+00 -1.132096418056e+03
          2.627889160472e+02 0.000000000000e+00 -1.126185784776e+03
          2.874430267934e+02 0.000000000000e+00 -1.114949547219e+03
          2.767389088850e+02 0.000000000000e+00 -1.128917775871e+03
          3.064763244054e+02 0.000000000000e+00 -1.116128678761e+03
          3.259812985441e+02 0.000000000000e+00 -1.116425757093e+03
          3.453862722265e+02 0.000000000000e+00 -1.116712674093e+03
          3.652465219348e+02 0.000000000000e+00 -1.117085369148e+03
          3.853190693895e+02 0.000000000000e+00 -1.116743037627e+03
          4.050385923372e+02 0.000000000000e+00 -1.116493845420e+03
          4.245886248103e+02 0.000000000000e+00 -1.116358101809e+03
          4.440611221144e+02 0.000000000000e+00 -1.116290613134e+03
          4.634942807547e+02 0.000000000000e+00 -1.116258218638e+03
          4.829067036294e+02 0.000000000000e+00 -1.116242069404e+03
          5.023096643780e+02 0.000000000000e+00 -1.116232963857e+03
          5.217093788874e+02 0.000000000000e+00 -1.116227090129e+03
          5.411085544765e+02 0.000000000000e+00 -1.116222986171e+03
          5.605079527818e+02 0.000000000000e+00 -1.116219923893e+03
          5.799075741600e+02 0.000000000000e+00 -1.116217412186e+03
          5.993072576377e+02 0.000000000000e+00 -1.116215168703e+03
          6.187068398041e+02 0.000000000000e+00 -1.116213115296e+03
          6.381061097854e+02 0.000000000000e+00 -1.116211343676e+03
          6.575046995901e+02 0.000000000000e+00 -1.116210162612e+03
          6.769019201399e+02 0.000000000000e+00 -1.116210326120e+03
          6.962964639742e+02 0.000000000000e+00 -1.116213532513e+03
          7.156858076525e+02 0.000000000000e+00 -1.116223320571e+03
          7.350650651214e+02 0.000000000000e+00 -1.116246657189e+03
          7.544248458708e+02 0.000000000000e+00 -1.116297027560e+03
          7.737534171854e+02 0.000000000000e+00 -1.116404421542e+03
          7.930532230343e+02 0.000000000000e+00 -1.116642869036e+03
          8.124271464978e+02 0.000000000000e+00 -1.117194708808e+03
          8.323619019831e+02 0.000000000000e+00 -1.118328194804e+03
          8.528917089837e+02 0.000000000000e+00 -1.118096293700e+03
          2.489801017584e+02 0.000000000000e+00 -1.151319534716e+03
          2.645289615323e+02 0.000000000000e+00 -1.140696514199e+03
          2.496555879029e+02 0.000000000000e+00 -1.175885744023e+03
          2.729459007131e+02 0.000000000000e+00 -1.180432101057e+03
          2.673453226291e+02 0.000000000000e+00 -1.159747019881e+03
          2.926610041363e+02 0.000000000000e+00 -1.182632359216e+03
          3.114566725444e+02 0.000000000000e+00 -1.183895730621e+03
          3.299298941418e+02 0.000000000000e+00 -1.184486004514e+03
          3.484830381205e+02 0.000000000000e+00 -1.184461707167e+03
          3.673827955263e+02 0.000000000000e+00 -1.184111432190e+03
          3.866132363965e+02 0.000000000000e+00 -1.183765219514e+03
          4.060023370740e+02 0.000000000000e+00 -1.183540699043e+03
          4.254231395062e+02 0.000000000000e+00 -1.183416559747e+03
          4.448313195920e+02 0.000000000000e+00 -1.183353136454e+03
          4.642208297123e+02 0.000000000000e+00 -1.183321579727e+03
          4.835973026660e+02 0.000000000000e+00 -1.183305253424e+03
          5.029672260133e+02 0.000000000000e+00 -1.183295907297e+03
          5.223348413331e+02 0.000000000000e+00 -1.183289936870e+03
          5.417020792634e+02 0.000000000000e+00 -1.183285773578e+03
          5.610694892356e+02 0.000000000000e+00 -1.183282593855e+03
          5.804370748055e+02 0.000000000000e+00 -1.183279908878e+03
          5.998047157873e+02 0.000000000000e+00 -1.183277470474e+03
          6.191722699857e+02 0.000000000000e+00 -1.183275206266e+03
          6.385395274527e+02 0.000000000000e+00 -1.183273173898e+03
          6.579061226852e+02 0.000000000000e+00 -1.183271618455e+03
          6.772714195195e+02 0.000000000000e+00 -1.183271214453e+03
          6.966342398931e+02 0.000000000000e+00 -1.183273525927e+03
          7.159920481953e+02 0.000000000000e+00 -1.183281534290e+03
          7.353389251689e+02 0.000000000000e+00 -1.183299603491e+03
          7.546616650314e+02 0.000000000000e+00 -1.183331319869e+03
          7.739336982648e+02 0.000000000000e+00 -1.183371351516e+03
          7.931113167361e+02 0.000000000000e+00 -1.183380684732e+03
          8.121679887194e+02 0.000000000000e+00 -1.183219304379e+03
          8.313299520294e+02 0.000000000000e+00 -1.182549636773e+03
          8.513044686839e+02 0.000000000000e+00 -1.181673595068e+03
          8.626699410320e+02 0.000000000000e+00 -1.160465972727e+03
          8.664990673852e+02 0.000000000000e+00 -1.135361856528e+03
          8.830140025004e+02 0.000000000000e+00 -1.148942068573e+03
          2.944765493899e+02 0.000000000000e+00 -1.131709024482e+03
          2.815512657028e+02 0.000000000000e+00 -1.145822359948e+03
          2.865144253365e+02 0.000000000000e+00 -1.164233437025e+03
          3.049171701786e+02 0.000000000000e+00 -1.167144747697e+03
          3.224455309878e+02 0.000000000000e+00 -1.169053239649e+03
          2.998567255609e+02 0.000000000000e+00 -1.149531982876e+03
          3.169040294275e+02 0.000000000000e+00 -1.153422089286e+03
          3.150209945219e+02 0.000000000000e+00 -1.134778697387e+03
          3.396964727781e+02 0.000000000000e+00 -1.169488187555e+03
          3.321548512501e+02 0.000000000000e+00 -1.155827740312e+03
          3.274134629680e+02 0.000000000000e+00 -1.144116974903e+03
          3.342960105105e+02 0.000000000000e+00 -1.132063010412e+03
          3.576186409026e+02 0.000000000000e+00 -1.168700584474e+03
          3.478953203370e+02 0.000000000000e+00 -1.154390745442e+03
          3.389688797239e+02 0.000000000000e+00 -1.144455140127e+03
          3.532459414785e+02 0.000000000000e+00 -1.135868054335e+03
          3.765061464680e+02 0.000000000000e+00 -1.167772606224e+03
          3.959106559021e+02 0.000000000000e+00 -1.167195535326e+03
          4.154111215991e+02 0.000000000000e+00 -1.166879903817e+03
          4.348887932222e+02 0.000000000000e+00 -1.166717709895e+03
          4.543250844017e+02 0.000000000000e+00 -1.166637516720e+03
          4.737294554591e+02 0.000000000000e+00 -1.166597901601e+03
          4.931152223777e+02 0.000000000000e+00 -1.166576905982e+03
          5.124927933906e+02 0.000000000000e+00 -1.166564342641e+03
          5.318679724712e+02 0.000000000000e+00 -1.166555974471e+03
          5.512430344806e+02 0.000000000000e+00 -1.166549934541e+03
          5.706184455953e+02 0.000000000000e+00 -1.166545166769e+03
          5.899940682537e+02 0.000000000000e+00 -1.166541035776e+03
          6.093696594602e+02 0.000000000000e+00 -1.166537259414e+03
          6.287449217995e+02 0.000000000000e+00 -1.166533838245e+03
          6.481193801910e+02 0.000000000000e+00 -1.166531058408e+03
          6.674921899463e+02 0.000000000000e+00 -1.166529723891e+03
          6.868617783003e+02 0.000000000000e+00 -1.166531718700e+03
          7.062249436112e+02 0.000000000000e+00 -1.166540867275e+03
          7.255746391249e+02 0.000000000000e+00 -1.166563713276e+03
          7.448952272111e+02 0.000000000000e+00 -1.166609153039e+03
          7.641540296896e+02 0.000000000000e+00 -1.166684906185e+03
          7.832836585059e+02 0.000000000000e+00 -1.166783088144e+03
          8.021497535787e+02 0.000000000000e+00 -1.166826984547e+03
          8.205549089519e+02 0.000000000000e+00 -1.166443922762e+03
          8.393804550282e+02 0.000000000000e+00 -1.163837441645e+03
          8.432067127481e+02 0.000000000000e+00 -1.140414564884e+03
          8.271400313674e+02 0.000000000000e+00 -1.151370742033e+03
          8.214284684805e+02 0.000000000000e+00 -1.135342324361e+03
          8.110471811839e+02 0.000000000000e+00 -1.150717421191e+03
          8.023141449985e+02 0.000000000000e+00 -1.133947123777e+03
          7.926227300129e+02 0.000000000000e+00 -1.150301028163e+03
          7.832460514017e+02 0.000000000000e+00 -1.133430685554e+03
          7.736400573489e+02 0.000000000000e+00 -1.150056800150e+03
          7.640505151443e+02 0.000000000000e+00 -1.133202054999e+03
          7.447659508110e+02 0.000000000000e+00 -1.133092177252e+03
          7.544464260186e+02 0.000000000000e+00 -1.149915500137e+03
          7.351566031348e+02 0.000000000000e+00 -1.149837851459e+03
          7.254269593846e+02 0.000000000000e+00 -1.133036899345e+03
          7.158180983855e+02 0.000000000000e+00 -1.149797444934e+03
          7.060620163506e+02 0.000000000000e+00 -1.133011209187e+03
          6.964563799625e+02 0.000000000000e+00 -1.149778891918e+03
          6.866835972110e+02 0.000000000000e+00 -1.133000673109e+03
          6.770833739681e+02 0.000000000000e+00 -1.149772145841e+03
          6.672983548302e+02 0.000000000000e+00 -1.132997698626e+03
          6.577047860270e+02 0.000000000000e+00 -1.149771308836e+03
          6.479096666045e+02 0.000000000000e+00 -1.132998328953e+03
          6.383233989486e+02 0.000000000000e+00 -1.149773247471e+03
          6.285192508468e+02 0.000000000000e+00 -1.133000617868e+03
          6.189406223324e+02 0.000000000000e+00 -1.149776451069e+03
          6.091279983334e+02 0.000000000000e+00 -1.133003671893e+03
          5.995572010770e+02 0.000000000000e+00 -1.149780260610e+03
          5.897363916317e+02 0.000000000000e+00 -1.133007130498e+03
          5.801735682055e+02 0.000000000000e+00 -1.149784475799e+03
          5.703447521090e+02 0.000000000000e+00 -1.133010973321e+03
          5.607900652616e+02 0.000000000000e+00 -1.149789262044e+03
          5.509533921200e+02 0.000000000000e+00 -1.133015521834e+03
          5.414070094383e+02 0.000000000000e+00 -1.149795175605e+03
          5.315625235331e+02 0.000000000000e+00 -1.133021426141e+03
          5.220243247665e+02 0.000000000000e+00 -1.149803117977e+03
          5.121715727235e+02 0.000000000000e+00 -1.133029596047e+03
          5.026403580887e+02 0.000000000000e+00 -1.149814461350e+03
          4.927776175983e+02 0.000000000000e+00 -1.133041646191e+03
          4.832498411212e+02 0.000000000000e+00 -1.149832275820e+03
          4.733732039807e+02 0.000000000000e+00 -1.133061866017e+03
          4.638418897002e+02 0.000000000000e+00 -1.149864659491e+03
          4.539445382786e+02 0.000000000000e+00 -1.133101306993e+03
          4.443997287560e+02 0.000000000000e+00 -1.149930479975e+03
          4.249029745248e+02 0.000000000000e+00 -1.150067706019e+03
          4.344702091238e+02 0.000000000000e+00 -1.133183909261e+03
          4.149182157041e+02 0.000000000000e+00 -1.133355186459e+03
          4.053249487923e+02 0.000000000000e+00 -1.150345031701e+03
          3.952103646646e+02 0.000000000000e+00 -1.133698501505e+03
          3.856526433530e+02 0.000000000000e+00 -1.150895284907e+03
          3.750955700189e+02 0.000000000000e+00 -1.134379880883e+03
          3.659931078484e+02 0.000000000000e+00 -1.152000259996e+03
          3.201976446991e+02 0.000000000000e+00 -5.867574880746e+02
          3.185936607069e+02 0.000000000000e+00 -5.958798423990e+02
          3.296843361636e+02 0.000000000000e+00 -5.915694408129e+02
          3.496619041274e+02 0.000000000000e+00 -5.911409201658e+02
          3.417338939891e+02 0.000000000000e+00 -5.820157276747e+02
          3.392163302941e+02 0.000000000000e+00 -5.915722789796e+02
          3.433378779814e+02 0.000000000000e+00 -5.728933733502e+02
          3.328923041480e+02 0.000000000000e+00 -5.733247321640e+02
          3.561010311919e+02 0.000000000000e+00 -5.706890539313e+02
          3.472594413508e+02 0.000000000000e+00 -5.619980584207e+02
          3.496048606987e+02 0.000000000000e+00 -5.323294480666e+02
          3.582448173986e+02 0.000000000000e+00 -5.278543913342e+02
          3.495521808091e+02 0.000000000000e+00 -5.232379038095e+02
          3.573735393707e+02 0.000000000000e+00 -4.789313413747e+02
          3.661133490926e+02 0.000000000000e+00 -4.756504953489e+02
          3.592759377842e+02 0.000000000000e+00 -4.696979885696e+02
          3.638085860365e+02 0.000000000000e+00 -4.420399364394e+02
          3.715742589050e+02 0.000000000000e+00 -4.385376828475e+02
          3.647177368997e+02 0.000000000000e+00 -4.329871637058e+02
          3.693550132628e+02 0.000000000000e+00 -4.055805693786e+02
          3.735278964136e+02 0.000000000000e+00 -4.051674610546e+02
          3.675408831508e+02 0.000000000000e+00 -3.995868916760e+02
          3.647753961488e+02 0.000000000000e+00 -3.950294355764e+02
          3.689482792996e+02 0.000000000000e+00 -3.946163272524e+02
          3.564519668343e+02 0.000000000000e+00 -3.948442617656e+02
          3.578593629830e+02 0.000000000000e+00 -3.898736973421e+02
          3.340624777293e+02 0.000000000000e+00 -4.045746763317e+02
          3.366934830120e+02 0.000000000000e+00 -3.963134516788e+02
          3.279584542557e+02 0.000000000000e+00 -4.008891100073e+02
          3.461667200771e+02 0.000000000000e+00 -3.948437707673e+02
          3.400626966035e+02 0.000000000000e+00 -3.911582044429e+02
          3.530827532428e+02 0.000000000000e+00 -3.999995090016e+02
          3.514787692506e+02 0.000000000000e+00 -4.091218633260e+02
          3.617640160078e+02 0.000000000000e+00 -4.091223543244e+02
          3.677510292706e+02 0.000000000000e+00 -4.147029237030e+02
          3.663217208919e+02 0.000000000000e+00 -4.238648093814e+02
          3.739127181469e+02 0.000000000000e+00 -4.203230244356e+02
          3.585560480234e+02 0.000000000000e+00 -4.273670629733e+02
          3.497154746925e+02 0.000000000000e+00 -4.191220215062e+02
          3.481114907003e+02 0.000000000000e+00 -4.282443758306e+02
          3.410342119275e+02 0.000000000000e+00 -4.099991761834e+02
          3.322991831712e+02 0.000000000000e+00 -4.145748345119e+02
          3.292290393982e+02 0.000000000000e+00 -4.241531096305e+02
          3.222573052000e+02 0.000000000000e+00 -4.187286097788e+02
          3.267645044946e+02 0.000000000000e+00 -4.444537929604e+02
          3.274657448401e+02 0.000000000000e+00 -4.341532678106e+02
          3.184859210814e+02 0.000000000000e+00 -4.386074100471e+02
          3.375076228114e+02 0.000000000000e+00 -4.299994925437e+02
          3.463481961423e+02 0.000000000000e+00 -4.382445340108e+02
          3.447442121501e+02 0.000000000000e+00 -4.473668883352e+02
          3.553480800390e+02 0.000000000000e+00 -4.456117716221e+02
          3.622046020443e+02 0.000000000000e+00 -4.511622907638e+02
          3.608799217764e+02 0.000000000000e+00 -4.605756342452e+02
          3.693404277740e+02 0.000000000000e+00 -4.570037990624e+02
          3.521401120545e+02 0.000000000000e+00 -4.638564802710e+02
          3.429809175920e+02 0.000000000000e+00 -4.573670465154e+02
          3.413769335998e+02 0.000000000000e+00 -4.664894008398e+02
          3.339810336953e+02 0.000000000000e+00 -4.499998089041e+02
          3.250012099365e+02 0.000000000000e+00 -4.544539511406e+02
          3.240497388250e+02 0.000000000000e+00 -4.636638427936e+02
          3.168332096243e+02 0.000000000000e+00 -4.581178268499e+02
          3.205238299357e+02 0.000000000000e+00 -4.821115658601e+02
          3.222864442670e+02 0.000000000000e+00 -4.736640009737e+02
          3.141191241815e+02 0.000000000000e+00 -4.757752833892e+02
          3.304544445792e+02 0.000000000000e+00 -4.700001252644e+02
          3.396136390417e+02 0.000000000000e+00 -4.764895590200e+02
          3.380096550495e+02 0.000000000000e+00 -4.856119133444e+02
          3.489321440701e+02 0.000000000000e+00 -4.821011889198e+02
          3.557695553785e+02 0.000000000000e+00 -4.880536956992e+02
          3.537866464809e+02 0.000000000000e+00 -4.966656523522e+02
          3.622280417815e+02 0.000000000000e+00 -4.934958048072e+02
          3.457241760857e+02 0.000000000000e+00 -5.003458975687e+02
          3.521826624887e+02 0.000000000000e+00 -5.057880066767e+02
          3.511561648013e+02 0.000000000000e+00 -5.141155494851e+02
          3.592186351965e+02 0.000000000000e+00 -5.104353042687e+02
          3.425162081013e+02 0.000000000000e+00 -5.185906062175e+02
          3.330366173330e+02 0.000000000000e+00 -5.138411548346e+02
          3.314326333408e+02 0.000000000000e+00 -5.229635091590e+02
          3.235588017388e+02 0.000000000000e+00 -5.091073287905e+02
          3.346423764993e+02 0.000000000000e+00 -5.047344258490e+02
          3.362463604915e+02 0.000000000000e+00 -4.956120715246e+02
          3.269278554631e+02 0.000000000000e+00 -4.900004416248e+02
          3.187605353776e+02 0.000000000000e+00 -4.921117240403e+02
          3.156008973490e+02 0.000000000000e+00 -5.000005831594e+02
          3.091968718216e+02 0.000000000000e+00 -4.921117073948e+02
          3.139951381828e+02 0.000000000000e+00 -5.091073121450e+02
          3.024882578195e+02 0.000000000000e+00 -5.109528852380e+02
          3.104461622092e+02 0.000000000000e+00 -5.200596308690e+02
          3.093186953135e+02 0.000000000000e+00 -5.403295209545e+02
          3.088404030430e+02 0.000000000000e+00 -5.291663598546e+02
          2.994175741165e+02 0.000000000000e+00 -5.330683650619e+02
          3.203472834063e+02 0.000000000000e+00 -5.273207867617e+02
          3.298268741745e+02 0.000000000000e+00 -5.320702381446e+02
          3.282228901823e+02 0.000000000000e+00 -5.411925924690e+02
          3.393082401169e+02 0.000000000000e+00 -5.368353148663e+02
          3.480008767064e+02 0.000000000000e+00 -5.414518023911e+02
          3.488634253430e+02 0.000000000000e+00 -5.528757040963e+02
          3.591600459248e+02 0.000000000000e+00 -5.483698372966e+02
          3.361002721325e+02 0.000000000000e+00 -5.550800235152e+02
          3.266171310161e+02 0.000000000000e+00 -5.502993214546e+02
          3.250131470239e+02 0.000000000000e+00 -5.594216757790e+02
          3.171357650737e+02 0.000000000000e+00 -5.455342447328e+02
          3.077129361472e+02 0.000000000000e+00 -5.494362499401e+02
          3.070959003809e+02 0.000000000000e+00 -5.584976067360e+02
          2.992788306207e+02 0.000000000000e+00 -5.532928829577e+02
          3.040592683346e+02 0.000000000000e+00 -5.762825315395e+02
          3.054901412146e+02 0.000000000000e+00 -5.676043357216e+02
          2.972309219743e+02 0.000000000000e+00 -5.710324355715e+02
          3.139242467412e+02 0.000000000000e+00 -5.637477027040e+02
          3.234073878576e+02 0.000000000000e+00 -5.685284047646e+02
          3.218034038654e+02 0.000000000000e+00 -5.776507590890e+02
          3.107127284087e+02 0.000000000000e+00 -5.819611606752e+02
          3.024535091684e+02 0.000000000000e+00 -5.853892605250e+02
          3.005956861600e+02 0.000000000000e+00 -5.942733574142e+02
          2.939422260859e+02 0.000000000000e+00 -5.885947282786e+02
          2.939789921043e+02 0.000000000000e+00 -6.310235043966e+02
          2.955475323252e+02 0.000000000000e+00 -6.216900114911e+02
          2.868425918522e+02 0.000000000000e+00 -6.252187102846e+02
          2.885185103089e+02 0.000000000000e+00 -6.669160175037e+02
          2.895534150963e+02 0.000000000000e+00 -6.583782038481e+02
          2.818110294929e+02 0.000000000000e+00 -6.613724998065e+02
          2.801765972723e+02 0.000000000000e+00 -7.003485850675e+02
          2.834834524171e+02 0.000000000000e+00 -6.929492134818e+02
          2.738221904422e+02 0.000000000000e+00 -6.929491610616e+02
          2.729405625464e+02 0.000000000000e+00 -7.450382587935e+02
          2.726346852763e+02 0.000000000000e+00 -7.326911702322e+02
          2.628711441647e+02 0.000000000000e+00 -7.369231811038e+02
          2.672877086256e+02 0.000000000000e+00 -7.834733829026e+02
          2.689303951939e+02 0.000000000000e+00 -7.749339964649e+02
          2.606477557505e+02 0.000000000000e+00 -7.771435210113e+02
          2.542931729440e+02 0.000000000000e+00 -8.430146419003e+02
          2.563737535110e+02 0.000000000000e+00 -8.318244055204e+02
          2.456027212739e+02 0.000000000000e+00 -8.339917857913e+02
          2.481314287543e+02 0.000000000000e+00 -8.836875149022e+02
          2.495451687019e+02 0.000000000000e+00 -8.735414274307e+02
          2.395516573683e+02 0.000000000000e+00 -8.770270826475e+02
          2.412040098328e+02 0.000000000000e+00 -9.234988718449e+02
          2.428755213529e+02 0.000000000000e+00 -9.133516131607e+02
          2.328938561911e+02 0.000000000000e+00 -9.172940272641e+02
          2.358366426106e+02 0.000000000000e+00 -9.624006721792e+02
          2.366537387810e+02 0.000000000000e+00 -9.531670102736e+02
          2.282439714902e+02 0.000000000000e+00 -9.566566266551e+02
          2.274193471078e+02 0.000000000000e+00 -9.982660541836e+02
          2.306464294543e+02 0.000000000000e+00 -9.904530723747e+02
          2.207586317539e+02 0.000000000000e+00 -9.904534727046e+02
          2.258033054162e+02 0.000000000000e+00 -1.007435797190e+03
          2.356911031166e+02 0.000000000000e+00 -1.007435396860e+03
          2.141839635877e+02 0.000000000000e+00 -1.009356406018e+03
          2.224557195964e+02 0.000000000000e+00 -1.018525748695e+03
          2.193154202188e+02 0.000000000000e+00 -1.056621896795e+03
          2.200880561015e+02 0.000000000000e+00 -1.047869926750e+03
          2.117925816617e+02 0.000000000000e+00 -1.051207711652e+03
          2.122000788317e+02 0.000000000000e+00 -1.092924248706e+03
          2.141762125910e+02 0.000000000000e+00 -1.083680406459e+03
          2.052295635306e+02 0.000000000000e+00 -1.086641571245e+03
          2.059732203284e+02 0.000000000000e+00 -1.130156191850e+03
          2.073269309006e+02 0.000000000000e+00 -1.120751220593e+03
          1.986175901032e+02 0.000000000000e+00 -1.124265356496e+03
          2.004000017827e+02 0.000000000000e+00 -1.166167810925e+03
          2.015475232859e+02 0.000000000000e+00 -1.157609293966e+03
          1.937291307092e+02 0.000000000000e+00 -1.160456076918e+03
          2.120826331430e+02 0.000000000000e+00 -1.200000000000e+03
          2.136986748346e+02 0.000000000000e+00 -1.190830256993e+03
          2.033702692846e+02 0.000000000000e+00 -1.190830256993e+03
          1.916665162134e+02 0.000000000000e+00 -1.200000000000e+03
          1.951941157284e+02 0.000000000000e+00 -1.192412015081e+03
          1.851064043487e+02 0.000000000000e+00 -1.192412015081e+03
          1.968101574200e+02 0.000000000000e+00 -1.183242272075e+03
          1.987839600911e+02 0.000000000000e+00 -1.175337553932e+03
          1.906078065349e+02 0.000000000000e+00 -1.176919312020e+03
          2.066023526678e+02 0.000000000000e+00 -1.172490770980e+03
          2.154718709653e+02 0.000000000000e+00 -1.180771256993e+03
          2.170879126569e+02 0.000000000000e+00 -1.171601513987e+03
          2.241842348237e+02 0.000000000000e+00 -1.189941000000e+03
          2.320908809973e+02 0.000000000000e+00 -1.200000000000e+03
          2.338640771280e+02 0.000000000000e+00 -1.189941000000e+03
          2.457131556023e+02 0.000000000000e+00 -1.187942872012e+03
          2.378065094286e+02 0.000000000000e+00 -1.177883872012e+03
          2.392419624871e+02 0.000000000000e+00 -1.155541767358e+03
          2.395797055593e+02 0.000000000000e+00 -1.167824872012e+03
          2.493178448306e+02 0.000000000000e+00 -1.163602639370e+03
          2.277306270851e+02 0.000000000000e+00 -1.169823000000e+03
          2.188611087876e+02 0.000000000000e+00 -1.161542513987e+03
          2.204771504792e+02 0.000000000000e+00 -1.152372770980e+03
          2.098344360510e+02 0.000000000000e+00 -1.154151284967e+03
          2.031635649775e+02 0.000000000000e+00 -1.148439550960e+03
          2.043571786368e+02 0.000000000000e+00 -1.139325934857e+03
          1.960702658717e+02 0.000000000000e+00 -1.142783943856e+03
          2.130665194342e+02 0.000000000000e+00 -1.135811798953e+03
          2.222503466099e+02 0.000000000000e+00 -1.142313770980e+03
          2.238663883015e+02 0.000000000000e+00 -1.133144027973e+03
          2.312770193465e+02 0.000000000000e+00 -1.149705000000e+03
          2.410151586178e+02 0.000000000000e+00 -1.145482767358e+03
          2.414449104858e+02 0.000000000000e+00 -1.135871209028e+03
          2.494098536264e+02 0.000000000000e+00 -1.141707976386e+03
          2.448544663462e+02 0.000000000000e+00 -1.117323494043e+03
          2.432181066165e+02 0.000000000000e+00 -1.125812209028e+03
          2.514759652241e+02 0.000000000000e+00 -1.123607703071e+03
          2.348234116079e+02 0.000000000000e+00 -1.129587000000e+03
          2.256395844322e+02 0.000000000000e+00 -1.123085027973e+03
          2.272556261238e+02 0.000000000000e+00 -1.113915284967e+03
          2.162986028174e+02 0.000000000000e+00 -1.117472312940e+03
          2.089429725922e+02 0.000000000000e+00 -1.111581477586e+03
          2.105840371401e+02 0.000000000000e+00 -1.102093991713e+03
          2.016123652233e+02 0.000000000000e+00 -1.105372899366e+03
          2.195306862006e+02 0.000000000000e+00 -1.099132826927e+03
          2.290288222545e+02 0.000000000000e+00 -1.103856284967e+03
          2.306448639461e+02 0.000000000000e+00 -1.094686541960e+03
          2.383698038693e+02 0.000000000000e+00 -1.109469000000e+03
          2.466276624769e+02 0.000000000000e+00 -1.107264494043e+03
          2.498467794118e+02 0.000000000000e+00 -1.099410000210e+03
          2.563314418887e+02 0.000000000000e+00 -1.107264494253e+03
          2.515654008169e+02 0.000000000000e+00 -1.089663301735e+03
          2.619362733057e+02 0.000000000000e+00 -1.088818352123e+03
          2.539511152990e+02 0.000000000000e+00 -1.079071653438e+03
          2.418616214051e+02 0.000000000000e+00 -1.089663301525e+03
          2.323634853512e+02 0.000000000000e+00 -1.084939843485e+03
          2.339795270428e+02 0.000000000000e+00 -1.075770100478e+03
          2.227627695838e+02 0.000000000000e+00 -1.080793340914e+03
          2.157922542826e+02 0.000000000000e+00 -1.074510663452e+03
          2.176993785272e+02 0.000000000000e+00 -1.065791639802e+03
          2.091128215344e+02 0.000000000000e+00 -1.068678705347e+03
          2.259948529670e+02 0.000000000000e+00 -1.062453854900e+03
          2.356981484480e+02 0.000000000000e+00 -1.066023402003e+03
          2.373141901395e+02 0.000000000000e+00 -1.056853658997e+03
          2.452988642154e+02 0.000000000000e+00 -1.070169904575e+03
          2.556697367042e+02 0.000000000000e+00 -1.069324954963e+03
          2.576581872433e+02 0.000000000000e+00 -1.058207673622e+03
          2.663104383270e+02 0.000000000000e+00 -1.067109422485e+03
          2.605918130517e+02 0.000000000000e+00 -1.037729567979e+03
          2.593768086485e+02 0.000000000000e+00 -1.048460975147e+03
          2.695138932694e+02 0.000000000000e+00 -1.045260733977e+03
          2.487361070256e+02 0.000000000000e+00 -1.050676507624e+03
          2.390328115447e+02 0.000000000000e+00 -1.047106960521e+03
          2.406488532363e+02 0.000000000000e+00 -1.037937217515e+03
          2.292269363502e+02 0.000000000000e+00 -1.044114368887e+03
          2.217040977931e+02 0.000000000000e+00 -1.038700183744e+03
          2.208396779049e+02 0.000000000000e+00 -1.027695491701e+03
          2.117007976562e+02 0.000000000000e+00 -1.031451049565e+03
          2.324590197334e+02 0.000000000000e+00 -1.025774882874e+03
          2.423674746414e+02 0.000000000000e+00 -1.028190519040e+03
          2.439835163330e+02 0.000000000000e+00 -1.019020776033e+03
          2.521733498359e+02 0.000000000000e+00 -1.031183110674e+03
          2.623104344568e+02 0.000000000000e+00 -1.027982869504e+03
          2.637428066759e+02 0.000000000000e+00 -1.017957675621e+03
          2.721612698917e+02 0.000000000000e+00 -1.024504132926e+03
          2.705661335755e+02 0.000000000000e+00 -9.784562988113e+02
          2.689714901762e+02 0.000000000000e+00 -9.885471248816e+02
          2.787711668901e+02 0.000000000000e+00 -9.845538053947e+02
          2.593971138702e+02 0.000000000000e+00 -9.316015921085e+02
          2.576784924650e+02 0.000000000000e+00 -9.413482905836e+02
          2.693595638872e+02 0.000000000000e+00 -9.337161259226e+02
          2.842886245385e+02 0.000000000000e+00 -9.044760300590e+02
          2.810509568732e+02 0.000000000000e+00 -9.122099341182e+02
          2.908241533091e+02 0.000000000000e+00 -9.122099336800e+02
          2.716860008931e+02 0.000000000000e+00 -8.619077018765e+02
          2.698705006308e+02 0.000000000000e+00 -8.722039987269e+02
          2.799619288895e+02 0.000000000000e+00 -8.735871399460e+02
          2.974118003026e+02 0.000000000000e+00 -8.198663406505e+02
          2.957484741264e+02 0.000000000000e+00 -8.285664939991e+02
          3.041208442280e+02 0.000000000000e+00 -8.263271789555e+02
          2.907324539463e+02 0.000000000000e+00 -7.538893393585e+02
          2.891229120624e+02 0.000000000000e+00 -7.630175787611e+02
          3.007181401452e+02 0.000000000000e+00 -7.558718649806e+02
          2.975184155087e+02 0.000000000000e+00 -7.154040553363e+02
          2.959088736248e+02 0.000000000000e+00 -7.245322947389e+02
          3.071563076807e+02 0.000000000000e+00 -7.193589073704e+02
          3.041266973400e+02 0.000000000000e+00 -6.779264449371e+02
          3.025171554561e+02 0.000000000000e+00 -6.870546843397e+02
          3.135944752163e+02 0.000000000000e+00 -6.828459497602e+02
          3.105572994403e+02 0.000000000000e+00 -6.414565081609e+02
          3.089477575564e+02 0.000000000000e+00 -6.505847475634e+02
          3.200326427519e+02 0.000000000000e+00 -6.463329921500e+02
          3.328911439062e+02 0.000000000000e+00 -6.173465022732e+02
          3.311812788239e+02 0.000000000000e+00 -6.253376101007e+02
          3.392111543264e+02 0.000000000000e+00 -6.237358384315e+02
          3.232517265197e+02 0.000000000000e+00 -6.280765133449e+02
          3.295717369400e+02 0.000000000000e+00 -6.344658495032e+02
          3.285471347064e+02 0.000000000000e+00 -6.432406155212e+02
          3.364766870106e+02 0.000000000000e+00 -6.405017122769e+02
          3.269375928225e+02 0.000000000000e+00 -6.523688549237e+02
          3.255664997466e+02 0.000000000000e+00 -6.617062057851e+02
          3.340809917011e+02 0.000000000000e+00 -6.586138291563e+02
          3.168135589841e+02 0.000000000000e+00 -6.645894709551e+02
          3.239569578627e+02 0.000000000000e+00 -6.708344451877e+02
          3.221628015546e+02 0.000000000000e+00 -6.801688743404e+02
          3.309157423171e+02 0.000000000000e+00 -6.772856091704e+02
          3.205532596707e+02 0.000000000000e+00 -6.892971137430e+02
          3.185795173821e+02 0.000000000000e+00 -6.982982645305e+02
          3.271478437204e+02 0.000000000000e+00 -6.956211891107e+02
          3.103753914485e+02 0.000000000000e+00 -7.011024285653e+02
          3.169699754982e+02 0.000000000000e+00 -7.074265039331e+02
          3.151673879976e+02 0.000000000000e+00 -7.160847356953e+02
          3.233715139312e+02 0.000000000000e+00 -7.132805716605e+02
          3.135578461137e+02 0.000000000000e+00 -7.252129750978e+02
          3.122842242786e+02 0.000000000000e+00 -7.337660388927e+02
          3.202953045955e+02 0.000000000000e+00 -7.304918672175e+02
          3.039372239129e+02 0.000000000000e+00 -7.376153861755e+02
          3.106746823947e+02 0.000000000000e+00 -7.428942782952e+02
          3.101991118332e+02 0.000000000000e+00 -7.519165976049e+02
          3.185461121989e+02 0.000000000000e+00 -7.480672503221e+02
          3.085895699493e+02 0.000000000000e+00 -7.610448370075e+02
          3.092141283317e+02 0.000000000000e+00 -7.722348009401e+02
          3.186951000197e+02 0.000000000000e+00 -7.682795335644e+02
          2.974990563774e+02 0.000000000000e+00 -7.741283437857e+02
          3.076045864478e+02 0.000000000000e+00 -7.813630403426e+02
          3.040756108237e+02 0.000000000000e+00 -7.923845373070e+02
          3.157906827780e+02 0.000000000000e+00 -7.904909944614e+02
          3.024660689398e+02 0.000000000000e+00 -8.015127767095e+02
          2.942799726096e+02 0.000000000000e+00 -7.923848225908e+02
          2.992273005649e+02 0.000000000000e+00 -8.095700438001e+02
          3.090229387790e+02 0.000000000000e+00 -8.095697585163e+02
          2.908549304634e+02 0.000000000000e+00 -8.118093588437e+02
          2.823369505000e+02 0.000000000000e+00 -8.015028627833e+02
          2.805214502377e+02 0.000000000000e+00 -8.117991596337e+02
          2.702686540010e+02 0.000000000000e+00 -8.113313130872e+02
          2.787866339644e+02 0.000000000000e+00 -8.216378091477e+02
          2.769711337021e+02 0.000000000000e+00 -8.319341059981e+02
          2.872239299387e+02 0.000000000000e+00 -8.324019525445e+02
          2.939329738641e+02 0.000000000000e+00 -8.388627908495e+02
          2.934744447979e+02 0.000000000000e+00 -8.487108209096e+02
          3.019989889855e+02 0.000000000000e+00 -8.448753623643e+02
          2.835929294141e+02 0.000000000000e+00 -8.529945462453e+02
          2.916589445356e+02 0.000000000000e+00 -8.590071177600e+02
          2.919534145000e+02 0.000000000000e+00 -8.715718771386e+02
          3.018349298837e+02 0.000000000000e+00 -8.672881518030e+02
          2.901379142377e+02 0.000000000000e+00 -8.818681739890e+02
          2.861041248008e+02 0.000000000000e+00 -8.941797332086e+02
          2.980956104113e+02 0.000000000000e+00 -8.921644704012e+02
          2.763309283649e+02 0.000000000000e+00 -8.941797336468e+02
          2.719616558186e+02 0.000000000000e+00 -8.896517912595e+02
          2.701461555563e+02 0.000000000000e+00 -8.999480881099e+02
          2.602160952756e+02 0.000000000000e+00 -8.976496522180e+02
          2.590488021303e+02 0.000000000000e+00 -9.042697013343e+02
          2.646095898647e+02 0.000000000000e+00 -9.020401948389e+02
          2.689788624110e+02 0.000000000000e+00 -9.065681372261e+02
          2.672602410059e+02 0.000000000000e+00 -9.163148357013e+02
          2.727968066974e+02 0.000000000000e+00 -9.142227289723e+02
          2.793323354681e+02 0.000000000000e+00 -9.219566325933e+02
          2.775937381981e+02 0.000000000000e+00 -9.302307177150e+02
          2.858478883739e+02 0.000000000000e+00 -9.282179228609e+02
          2.758751167930e+02 0.000000000000e+00 -9.399774161901e+02
          2.750371104771e+02 0.000000000000e+00 -9.490822630516e+02
          2.832712847880e+02 0.000000000000e+00 -9.455968548440e+02
          2.659223210769e+02 0.000000000000e+00 -9.532095228729e+02
          2.733184890719e+02 0.000000000000e+00 -9.588289615267e+02
          2.722847549806e+02 0.000000000000e+00 -9.687096003362e+02
          2.813995443807e+02 0.000000000000e+00 -9.645823405149e+02
          2.624850782667e+02 0.000000000000e+00 -9.727029198232e+02
          2.524902385133e+02 0.000000000000e+00 -9.707722880868e+02
          2.507716171082e+02 0.000000000000e+00 -9.805189865620e+02
          2.449108376495e+02 0.000000000000e+00 -9.844500074425e+02
          2.549056774028e+02 0.000000000000e+00 -9.863806391789e+02
          2.590478354564e+02 0.000000000000e+00 -9.921963167734e+02
          2.531870559977e+02 0.000000000000e+00 -9.961273376540e+02
          2.672528687711e+02 0.000000000000e+00 -9.982938233568e+02
          2.654614280811e+02 0.000000000000e+00 -1.008210977146e+03
          2.753850828008e+02 0.000000000000e+00 -1.004561785254e+03
          2.556105926462e+02 0.000000000000e+00 -1.011689713724e+03
          2.457021377381e+02 0.000000000000e+00 -1.009274077558e+03
          2.473181794297e+02 0.000000000000e+00 -1.000104334551e+03
          2.431760213761e+02 0.000000000000e+00 -9.942886569566e+02
          2.390419610815e+02 0.000000000000e+00 -9.884270043397e+02
          2.323812457276e+02 0.000000000000e+00 -9.806144228607e+02
          2.341018263373e+02 0.000000000000e+00 -9.722393216932e+02
          2.257062947101e+02 0.000000000000e+00 -9.742653897282e+02
          2.425115936281e+02 0.000000000000e+00 -9.687497053116e+02
          2.542250547866e+02 0.000000000000e+00 -9.609336385728e+02
          2.559436761917e+02 0.000000000000e+00 -9.511869400977e+02
          2.459812261747e+02 0.000000000000e+00 -9.490724062836e+02
          2.383885550543e+02 0.000000000000e+00 -9.433283607595e+02
          2.394691935595e+02 0.000000000000e+00 -9.333375213589e+02
          2.301417061658e+02 0.000000000000e+00 -9.374321253489e+02
          2.494508587213e+02 0.000000000000e+00 -9.293951072555e+02
          2.611319301435e+02 0.000000000000e+00 -9.217629425945e+02
          2.573139858570e+02 0.000000000000e+00 -9.141083508483e+02
          2.529204912679e+02 0.000000000000e+00 -9.097178082275e+02
          2.446103376262e+02 0.000000000000e+00 -9.035129636466e+02
          2.463966124810e+02 0.000000000000e+00 -8.935261644163e+02
          2.363516425660e+02 0.000000000000e+00 -8.971599693495e+02
          2.563901238146e+02 0.000000000000e+00 -8.900405091994e+02
          2.619509115489e+02 0.000000000000e+00 -8.878110027040e+02
          2.681356843575e+02 0.000000000000e+00 -8.820426482409e+02
          2.598597563612e+02 0.000000000000e+00 -8.703632101714e+02
          2.512799849752e+02 0.000000000000e+00 -8.637027779166e+02
          2.525583566707e+02 0.000000000000e+00 -8.528532914143e+02
          2.422437690114e+02 0.000000000000e+00 -8.560315086736e+02
          2.633293889078e+02 0.000000000000e+00 -8.506859111433e+02
          2.734208171665e+02 0.000000000000e+00 -8.520690523625e+02
          2.752363174288e+02 0.000000000000e+00 -8.417727555121e+02
          2.667990214544e+02 0.000000000000e+00 -8.310086121153e+02
          2.581085697843e+02 0.000000000000e+00 -8.219857560063e+02
          2.605542443484e+02 0.000000000000e+00 -8.113312432814e+02
          2.501289764049e+02 0.000000000000e+00 -8.121470366864e+02
          2.622890606217e+02 0.000000000000e+00 -8.014925937673e+02
          2.655042697283e+02 0.000000000000e+00 -7.935877855111e+02
          2.557898600756e+02 0.000000000000e+00 -7.935877157052e+02
          2.737869091716e+02 0.000000000000e+00 -7.913782609647e+02
          2.841203893973e+02 0.000000000000e+00 -7.913884601747e+02
          2.857299312812e+02 0.000000000000e+00 -7.822602207722e+02
          2.873394731651e+02 0.000000000000e+00 -7.731319813696e+02
          2.773537869662e+02 0.000000000000e+00 -7.711494557476e+02
          2.707138340912e+02 0.000000000000e+00 -7.648195938563e+02
          2.711571236491e+02 0.000000000000e+00 -7.551526614020e+02
          2.627337318768e+02 0.000000000000e+00 -7.589372021193e+02
          2.809206647608e+02 0.000000000000e+00 -7.509206505305e+02
          2.925158928436e+02 0.000000000000e+00 -7.437749367500e+02
          2.941254347275e+02 0.000000000000e+00 -7.346466973474e+02
          2.844875425554e+02 0.000000000000e+00 -7.306918453134e+02
          2.744181241736e+02 0.000000000000e+00 -7.225767676237e+02
          2.783931583751e+02 0.000000000000e+00 -7.104629876760e+02
          2.665403010960e+02 0.000000000000e+00 -7.124623125949e+02
          2.880544203500e+02 0.000000000000e+00 -7.104630400963e+02
          2.993018544059e+02 0.000000000000e+00 -7.052896527278e+02
          3.009113962898e+02 0.000000000000e+00 -6.961614133252e+02
          2.914436184135e+02 0.000000000000e+00 -6.912419085021e+02
          2.850892115833e+02 0.000000000000e+00 -6.838424844963e+02
          2.869127511426e+02 0.000000000000e+00 -6.760227464893e+02
          2.789525851462e+02 0.000000000000e+00 -6.777300514690e+02
          2.946551367460e+02 0.000000000000e+00 -6.730284505310e+02
          3.057324565063e+02 0.000000000000e+00 -6.688197159515e+02
          3.073419983902e+02 0.000000000000e+00 -6.596914765490e+02
          2.978666550786e+02 0.000000000000e+00 -6.548149925598e+02
          2.911591742626e+02 0.000000000000e+00 -6.492714748625e+02
          2.923732329380e+02 0.000000000000e+00 -6.401302333821e+02
          2.840599929557e+02 0.000000000000e+00 -6.436934446704e+02
          3.010781734111e+02 0.000000000000e+00 -6.366015345886e+02
          3.121630586066e+02 0.000000000000e+00 -6.323497791753e+02
          3.137726004905e+02 0.000000000000e+00 -6.232215397727e+02
          3.042896917436e+02 0.000000000000e+00 -6.183880766175e+02
          3.153783596568e+02 0.000000000000e+00 -6.141148107872e+02
          2.971532914915e+02 0.000000000000e+00 -6.125832825055e+02
          2.989899269937e+02 0.000000000000e+00 -6.033800863998e+02
          2.902477675753e+02 0.000000000000e+00 -6.066820212734e+02
          3.075012100762e+02 0.000000000000e+00 -6.001746186463e+02
          3.169879015407e+02 0.000000000000e+00 -6.049865713846e+02
          3.264708102875e+02 0.000000000000e+00 -6.098200345399e+02
          3.345006857901e+02 0.000000000000e+00 -6.082182628707e+02
          3.376123463019e+02 0.000000000000e+00 -6.006946333040e+02
          3.440326799205e+02 0.000000000000e+00 -6.082211010374e+02
          3.186658172994e+02 0.000000000000e+00 -5.661380537343e+02
          3.242102674407e+02 0.000000000000e+00 -5.639750402718e+02
          3.194686968825e+02 0.000000000000e+00 -5.615846892415e+02
          3.258151390200e+02 0.000000000000e+00 -5.548604986168e+02
          3.305567095782e+02 0.000000000000e+00 -5.572508496471e+02
          3.313587015743e+02 0.000000000000e+00 -5.526896724849e+02
          3.416798567416e+02 0.000000000000e+00 -5.585390409679e+02
          3.480614333469e+02 0.000000000000e+00 -5.574368812585e+02
          3.424818487377e+02 0.000000000000e+00 -5.539778638057e+02
          3.436545584117e+02 0.000000000000e+00 -5.391435586287e+02
          3.488028687025e+02 0.000000000000e+00 -5.368906252288e+02
          3.444565504078e+02 0.000000000000e+00 -5.345823814665e+02
          3.179740903777e+02 0.000000000000e+00 -5.136606849605e+02
          3.122206501960e+02 0.000000000000e+00 -5.145834715070e+02
          3.161996023909e+02 0.000000000000e+00 -5.191368443226e+02
          3.460341944552e+02 0.000000000000e+00 -5.209142550135e+02
          3.503541728052e+02 0.000000000000e+00 -5.186767266473e+02
          3.468361864513e+02 0.000000000000e+00 -5.163530778513e+02
          3.489534192872e+02 0.000000000000e+00 -5.030669521227e+02
          3.529846544848e+02 0.000000000000e+00 -5.012268295144e+02
          3.497554112833e+02 0.000000000000e+00 -4.985057749604e+02
          3.465261680818e+02 0.000000000000e+00 -4.957847204064e+02
          3.505574032794e+02 0.000000000000e+00 -4.939445977982e+02
          3.547781009297e+02 0.000000000000e+00 -4.923596740257e+02
          3.515488577282e+02 0.000000000000e+00 -4.896386194717e+02
          3.539548337165e+02 0.000000000000e+00 -4.759550879851e+02
          3.583247385775e+02 0.000000000000e+00 -4.743146649722e+02
          3.549060329233e+02 0.000000000000e+00 -4.713384115825e+02
          3.573120089116e+02 0.000000000000e+00 -4.576548800958e+02
          3.615422619104e+02 0.000000000000e+00 -4.558689625045e+02
          3.579743490455e+02 0.000000000000e+00 -4.529482083552e+02
          3.603803250339e+02 0.000000000000e+00 -4.392646768685e+02
          3.642631614681e+02 0.000000000000e+00 -4.375135500726e+02
          3.608349004654e+02 0.000000000000e+00 -4.347382905018e+02
          3.632408764537e+02 0.000000000000e+00 -4.210547590151e+02
          3.670363750812e+02 0.000000000000e+00 -4.192838665422e+02
          3.639555306431e+02 0.000000000000e+00 -4.164738161759e+02
          3.663615066314e+02 0.000000000000e+00 -4.027902846893e+02
          3.684479482068e+02 0.000000000000e+00 -4.025837305273e+02
          3.654544415754e+02 0.000000000000e+00 -3.997934458380e+02
          3.640716980744e+02 0.000000000000e+00 -3.975147177882e+02
          3.661581396498e+02 0.000000000000e+00 -3.973081636262e+02
          3.599099834171e+02 0.000000000000e+00 -3.974221308828e+02
          3.606136814915e+02 0.000000000000e+00 -3.949368486710e+02
          3.397454947488e+02 0.000000000000e+00 -3.981562348410e+02
          3.444821132813e+02 0.000000000000e+00 -3.974213943852e+02
          3.414301015445e+02 0.000000000000e+00 -3.955786112230e+02
          3.384299921074e+02 0.000000000000e+00 -4.022868471675e+02
          3.353779803706e+02 0.000000000000e+00 -4.004440640053e+02
          3.342499783838e+02 0.000000000000e+00 -4.220762219970e+02
          3.357850502704e+02 0.000000000000e+00 -4.172870844377e+02
          3.307641112847e+02 0.000000000000e+00 -4.193639720712e+02
          3.312544163740e+02 0.000000000000e+00 -4.422267218421e+02
          3.316050365468e+02 0.000000000000e+00 -4.370764592673e+02
          3.271151246674e+02 0.000000000000e+00 -4.393035303855e+02
          3.281337389812e+02 0.000000000000e+00 -4.618319049389e+02
          3.286094745369e+02 0.000000000000e+00 -4.572269591124e+02
          3.245254743808e+02 0.000000000000e+00 -4.590588969671e+02
          3.246074899784e+02 0.000000000000e+00 -4.810559246523e+02
          3.254887971441e+02 0.000000000000e+00 -4.768321422092e+02
          3.214051371013e+02 0.000000000000e+00 -4.778877834169e+02
          3.237258426994e+02 0.000000000000e+00 -4.860560037424e+02
          3.196421826567e+02 0.000000000000e+00 -4.871116449502e+02
          3.228441954204e+02 0.000000000000e+00 -4.910560828325e+02
          3.278095027421e+02 0.000000000000e+00 -4.850003625347e+02
          3.315871079773e+02 0.000000000000e+00 -4.928062565747e+02
          3.371280077705e+02 0.000000000000e+00 -4.906119924345e+02
          3.324687552563e+02 0.000000000000e+00 -4.878061774846e+02
          3.333504025353e+02 0.000000000000e+00 -4.828060983945e+02
          3.388116470456e+02 0.000000000000e+00 -4.810507361822e+02
          3.434708995598e+02 0.000000000000e+00 -4.838565511321e+02
          3.442728915559e+02 0.000000000000e+00 -4.792953739699e+02
          3.341523945315e+02 0.000000000000e+00 -4.782449212323e+02
          3.350340418105e+02 0.000000000000e+00 -4.732448421422e+02
          3.404952863208e+02 0.000000000000e+00 -4.714894799299e+02
          3.359156890895e+02 0.000000000000e+00 -4.682447630521e+02
          3.295727973002e+02 0.000000000000e+00 -4.750002043545e+02
          3.263704444231e+02 0.000000000000e+00 -4.718320631191e+02
          3.272520917021e+02 0.000000000000e+00 -4.668319840290e+02
          3.231680915460e+02 0.000000000000e+00 -4.686639218836e+02
          3.313360918582e+02 0.000000000000e+00 -4.650000461743e+02
          3.367973363685e+02 0.000000000000e+00 -4.632446839620e+02
          3.421789255959e+02 0.000000000000e+00 -4.619282236776e+02
          3.467585228272e+02 0.000000000000e+00 -4.651729405554e+02
          3.475605148233e+02 0.000000000000e+00 -4.606117633932e+02
          3.375993283646e+02 0.000000000000e+00 -4.586835067998e+02
          3.384809756437e+02 0.000000000000e+00 -4.536834277097e+02
          3.438625648710e+02 0.000000000000e+00 -4.523669674253e+02
          3.393626229227e+02 0.000000000000e+00 -4.486833486196e+02
          3.330993864163e+02 0.000000000000e+00 -4.549998879942e+02
          3.294911218159e+02 0.000000000000e+00 -4.522268800223e+02
          3.303727690949e+02 0.000000000000e+00 -4.472268009322e+02
          3.258828572156e+02 0.000000000000e+00 -4.494538720505e+02
          3.348626809743e+02 0.000000000000e+00 -4.449997298140e+02
          3.402442702017e+02 0.000000000000e+00 -4.436832695296e+02
          3.455462041462e+02 0.000000000000e+00 -4.428057111730e+02
          3.500461460945e+02 0.000000000000e+00 -4.464893299787e+02
          3.508481380906e+02 0.000000000000e+00 -4.419281528165e+02
          3.410462621978e+02 0.000000000000e+00 -4.391220923673e+02
          3.419279094768e+02 0.000000000000e+00 -4.341220132773e+02
          3.472298434213e+02 0.000000000000e+00 -4.332444549207e+02
          3.428095567559e+02 0.000000000000e+00 -4.291219341872e+02
          3.366259755324e+02 0.000000000000e+00 -4.349995716338e+02
          3.324866838258e+02 0.000000000000e+00 -4.320763801772e+02
          3.333683311048e+02 0.000000000000e+00 -4.270763010871e+02
          3.283473921192e+02 0.000000000000e+00 -4.291531887206e+02
          3.383892700904e+02 0.000000000000e+00 -4.249994134536e+02
          3.436912040349e+02 0.000000000000e+00 -4.241218550971e+02
          3.489134826964e+02 0.000000000000e+00 -4.236831986684e+02
          3.533337693618e+02 0.000000000000e+00 -4.278057194019e+02
          3.541357613579e+02 0.000000000000e+00 -4.232445422397e+02
          3.444931960310e+02 0.000000000000e+00 -4.195606779349e+02
          3.453748433100e+02 0.000000000000e+00 -4.145605988448e+02
          3.505971219715e+02 0.000000000000e+00 -4.141219424161e+02
          3.462564905890e+02 0.000000000000e+00 -4.095605197547e+02
          3.401525646485e+02 0.000000000000e+00 -4.149992552735e+02
          3.366666975494e+02 0.000000000000e+00 -4.122870053476e+02
          3.375483448284e+02 0.000000000000e+00 -4.072869262575e+02
          3.331808304503e+02 0.000000000000e+00 -4.095747554218e+02
          3.419158592065e+02 0.000000000000e+00 -4.049990970933e+02
          3.471381378681e+02 0.000000000000e+00 -4.045604406646e+02
          3.522807612467e+02 0.000000000000e+00 -4.045606861638e+02
          3.566213926292e+02 0.000000000000e+00 -4.091221088252e+02
          3.574233846253e+02 0.000000000000e+00 -4.045609316630e+02
          3.479401298642e+02 0.000000000000e+00 -3.999992635024e+02
          3.496247366599e+02 0.000000000000e+00 -3.974216398844e+02
          3.547673600385e+02 0.000000000000e+00 -3.974218853836e+02
          3.513093434557e+02 0.000000000000e+00 -3.948440162665e+02
          3.582253766214e+02 0.000000000000e+00 -3.999997545008e+02
          3.625660080039e+02 0.000000000000e+00 -4.045611771622e+02
          3.655595146353e+02 0.000000000000e+00 -4.073514618515e+02
          3.647575226392e+02 0.000000000000e+00 -4.119126390137e+02
          3.685530212667e+02 0.000000000000e+00 -4.101417465408e+02
          3.609620240117e+02 0.000000000000e+00 -4.136835314866e+02
          3.558194006331e+02 0.000000000000e+00 -4.136832859874e+02
          3.549377533541e+02 0.000000000000e+00 -4.186833650775e+02
          3.593580400195e+02 0.000000000000e+00 -4.228058858111e+02
          3.624388844576e+02 0.000000000000e+00 -4.256159361773e+02
          3.616368924615e+02 0.000000000000e+00 -4.301771133395e+02
          3.655197288958e+02 0.000000000000e+00 -4.284259865436e+02
          3.577540560273e+02 0.000000000000e+00 -4.319282401355e+02
          3.525317773657e+02 0.000000000000e+00 -4.323668965642e+02
          3.516501300867e+02 0.000000000000e+00 -4.373669756542e+02
          3.561500720351e+02 0.000000000000e+00 -4.410505944599e+02
          3.595783330378e+02 0.000000000000e+00 -4.438258540308e+02
          3.587763410416e+02 0.000000000000e+00 -4.483870311930e+02
          3.630065940404e+02 0.000000000000e+00 -4.466011136016e+02
          3.545460880429e+02 0.000000000000e+00 -4.501729487843e+02
          3.492441540984e+02 0.000000000000e+00 -4.510505071409e+02
          3.483625068194e+02 0.000000000000e+00 -4.560505862310e+02
          3.529421040506e+02 0.000000000000e+00 -4.592953031088e+02
          3.565100169155e+02 0.000000000000e+00 -4.622160572581e+02
          3.557080249194e+02 0.000000000000e+00 -4.667772344203e+02
          3.600779297803e+02 0.000000000000e+00 -4.651368114074e+02
          3.513381200584e+02 0.000000000000e+00 -4.684176574332e+02
          3.459565308311e+02 0.000000000000e+00 -4.697341177176e+02
          3.450748835520e+02 0.000000000000e+00 -4.747341968077e+02
          3.497341360662e+02 0.000000000000e+00 -4.775400117576e+02
          3.531528417204e+02 0.000000000000e+00 -4.805162651473e+02
          3.523508497243e+02 0.000000000000e+00 -4.850774423095e+02
          3.565715473746e+02 0.000000000000e+00 -4.834925185370e+02
          3.481301520740e+02 0.000000000000e+00 -4.866623660820e+02
          3.426689075637e+02 0.000000000000e+00 -4.884177282943e+02
          3.417872602847e+02 0.000000000000e+00 -4.934178073844e+02
          3.409852682886e+02 0.000000000000e+00 -4.979789845466e+02
          3.354443684954e+02 0.000000000000e+00 -5.001732486868e+02
          3.401832762925e+02 0.000000000000e+00 -5.025401617088e+02
          3.393812842964e+02 0.000000000000e+00 -5.071013388710e+02
          3.449221840896e+02 0.000000000000e+00 -5.049070747309e+02
          3.481514272911e+02 0.000000000000e+00 -5.076281292849e+02
          3.476381784474e+02 0.000000000000e+00 -5.117919006891e+02
          3.516694136450e+02 0.000000000000e+00 -5.099517780809e+02
          3.433182000974e+02 0.000000000000e+00 -5.140294290553e+02
          3.385784047133e+02 0.000000000000e+00 -5.116547033638e+02
          3.377764127172e+02 0.000000000000e+00 -5.162158805260e+02
          3.338394969161e+02 0.000000000000e+00 -5.092877903418e+02
          3.282977095359e+02 0.000000000000e+00 -5.114742418125e+02
          3.291005891190e+02 0.000000000000e+00 -5.069208773198e+02
          3.243616813219e+02 0.000000000000e+00 -5.045539642977e+02
          3.299034687022e+02 0.000000000000e+00 -5.023675128270e+02
          3.307054606983e+02 0.000000000000e+00 -4.978063356648e+02
          3.260462081841e+02 0.000000000000e+00 -4.950005207148e+02
          3.219625481414e+02 0.000000000000e+00 -4.960561619226e+02
          3.203827291270e+02 0.000000000000e+00 -5.000005914822e+02
          3.171807163633e+02 0.000000000000e+00 -4.960561535998e+02
          3.195798495439e+02 0.000000000000e+00 -5.045539559750e+02
          3.147980177659e+02 0.000000000000e+00 -5.045539476522e+02
          3.187769699608e+02 0.000000000000e+00 -5.091073204678e+02
          3.227559221557e+02 0.000000000000e+00 -5.136606932833e+02
          3.274948299528e+02 0.000000000000e+00 -5.160276063053e+02
          3.266928379567e+02 0.000000000000e+00 -5.205887834675e+02
          3.322346253369e+02 0.000000000000e+00 -5.184023319968e+02
          3.369744207211e+02 0.000000000000e+00 -5.207770576883e+02
          3.361724287249e+02 0.000000000000e+00 -5.253382348505e+02
          3.417142161052e+02 0.000000000000e+00 -5.231517833797e+02
          3.452322024591e+02 0.000000000000e+00 -5.254754321757e+02
          3.452585424039e+02 0.000000000000e+00 -5.300212043043e+02
          3.495785207539e+02 0.000000000000e+00 -5.277836759381e+02
          3.401102321130e+02 0.000000000000e+00 -5.322741377041e+02
          3.353695491418e+02 0.000000000000e+00 -5.298915993433e+02
          3.345675571457e+02 0.000000000000e+00 -5.344527765055e+02
          3.306297537577e+02 0.000000000000e+00 -5.275168736518e+02
          3.250870787904e+02 0.000000000000e+00 -5.296955124531e+02
          3.258899583735e+02 0.000000000000e+00 -5.251421479603e+02
          3.211501629894e+02 0.000000000000e+00 -5.227674222689e+02
          3.153967228078e+02 0.000000000000e+00 -5.236902088154e+02
          3.096432826261e+02 0.000000000000e+00 -5.246129953618e+02
          3.145938432246e+02 0.000000000000e+00 -5.282435733081e+02
          3.140301097768e+02 0.000000000000e+00 -5.383785183509e+02
          3.137909636415e+02 0.000000000000e+00 -5.327969378009e+02
          3.090795491782e+02 0.000000000000e+00 -5.347479404046e+02
          3.195444038231e+02 0.000000000000e+00 -5.318741512545e+02
          3.242841992073e+02 0.000000000000e+00 -5.342488769459e+02
          3.234822072112e+02 0.000000000000e+00 -5.388100541081e+02
          3.290248821784e+02 0.000000000000e+00 -5.366314153068e+02
          3.337655651496e+02 0.000000000000e+00 -5.390139536677e+02
          3.329635731535e+02 0.000000000000e+00 -5.435751308299e+02
          3.385062481208e+02 0.000000000000e+00 -5.413964920286e+02
          3.428525664156e+02 0.000000000000e+00 -5.437047357909e+02
          3.432838407338e+02 0.000000000000e+00 -5.494166866435e+02
          3.484321510247e+02 0.000000000000e+00 -5.471637532437e+02
          3.369022641286e+02 0.000000000000e+00 -5.505188463530e+02
          3.321606935704e+02 0.000000000000e+00 -5.481284953227e+02
          3.274200105992e+02 0.000000000000e+00 -5.457459569618e+02
          3.218764480449e+02 0.000000000000e+00 -5.479167830937e+02
          3.226793276280e+02 0.000000000000e+00 -5.433634186009e+02
          3.179386446569e+02 0.000000000000e+00 -5.409808802400e+02
          3.132272301936e+02 0.000000000000e+00 -5.429318828437e+02
          3.085158157304e+02 0.000000000000e+00 -5.448828854473e+02
          3.124243506105e+02 0.000000000000e+00 -5.474852473365e+02
          3.113129531442e+02 0.000000000000e+00 -5.565692902272e+02
          3.116214710274e+02 0.000000000000e+00 -5.520386118293e+02
          3.074044182641e+02 0.000000000000e+00 -5.539669283381e+02
          3.163328854906e+02 0.000000000000e+00 -5.500876092256e+02
          3.210735684618e+02 0.000000000000e+00 -5.524701475865e+02
          3.202715764657e+02 0.000000000000e+00 -5.570313247487e+02
          3.147271263243e+02 0.000000000000e+00 -5.591943382112e+02
          3.105100735611e+02 0.000000000000e+00 -5.611226547200e+02
          3.062930207978e+02 0.000000000000e+00 -5.630509712288e+02
          3.097071939779e+02 0.000000000000e+00 -5.656760192128e+02
          3.073859983717e+02 0.000000000000e+00 -5.791218461073e+02
          3.032563887515e+02 0.000000000000e+00 -5.808358960323e+02
          3.065831187885e+02 0.000000000000e+00 -5.836752106001e+02
          3.040484481181e+02 0.000000000000e+00 -5.972239880303e+02
          2.997928065768e+02 0.000000000000e+00 -5.988267219070e+02
          3.032455685349e+02 0.000000000000e+00 -6.017773525231e+02
          3.007214916176e+02 0.000000000000e+00 -6.154856795615e+02
          2.963504119084e+02 0.000000000000e+00 -6.171366469983e+02
          2.999186120344e+02 0.000000000000e+00 -6.200390440543e+02
          2.975285827577e+02 0.000000000000e+00 -6.338125194926e+02
          2.931761125212e+02 0.000000000000e+00 -6.355768688893e+02
          2.967257031746e+02 0.000000000000e+00 -6.383658839854e+02
          2.945129146706e+02 0.000000000000e+00 -6.520432337112e+02
          2.903562946794e+02 0.000000000000e+00 -6.538248393553e+02
          2.937100350874e+02 0.000000000000e+00 -6.565965982040e+02
          2.915868235275e+02 0.000000000000e+00 -6.699722340174e+02
          2.877156307258e+02 0.000000000000e+00 -6.714693819965e+02
          2.907839439443e+02 0.000000000000e+00 -6.745255985101e+02
          2.882664149984e+02 0.000000000000e+00 -6.875421964992e+02
          2.842863320002e+02 0.000000000000e+00 -6.883958489890e+02
          2.874635354153e+02 0.000000000000e+00 -6.920955609920e+02
          2.794528333645e+02 0.000000000000e+00 -7.266343064685e+02
          2.735264047250e+02 0.000000000000e+00 -7.276339689280e+02
          2.785611139159e+02 0.000000000000e+00 -7.316915077728e+02
          2.769306136536e+02 0.000000000000e+00 -7.479794546620e+02
          2.720488430978e+02 0.000000000000e+00 -7.500954600977e+02
          2.760388942050e+02 0.000000000000e+00 -7.530366559662e+02
          2.740338105287e+02 0.000000000000e+00 -7.679845248019e+02
          2.698221146425e+02 0.000000000000e+00 -7.698767951606e+02
          2.731420910801e+02 0.000000000000e+00 -7.730417261062e+02
          2.705373088986e+02 0.000000000000e+00 -7.874258219336e+02
          2.663959891769e+02 0.000000000000e+00 -7.885305842068e+02
          2.696455894500e+02 0.000000000000e+00 -7.924830232379e+02
          2.624537956194e+02 0.000000000000e+00 -8.264971840608e+02
          2.572411616476e+02 0.000000000000e+00 -8.269050807634e+02
          2.615863874827e+02 0.000000000000e+00 -8.314165088178e+02
          2.588112809259e+02 0.000000000000e+00 -8.468502765218e+02
          2.534257648074e+02 0.000000000000e+00 -8.479339666573e+02
          2.579438727892e+02 0.000000000000e+00 -8.517696012788e+02
          2.555698706682e+02 0.000000000000e+00 -8.670329940440e+02
          2.504125768385e+02 0.000000000000e+00 -8.686221026737e+02
          2.547024625315e+02 0.000000000000e+00 -8.719523188010e+02
          2.522607762844e+02 0.000000000000e+00 -8.868640120508e+02
          2.472640206176e+02 0.000000000000e+00 -8.886068396593e+02
          2.513933681478e+02 0.000000000000e+00 -8.917833368078e+02
          2.487654144471e+02 0.000000000000e+00 -9.066153859371e+02
          2.437429294896e+02 0.000000000000e+00 -9.084322884037e+02
          2.478980063104e+02 0.000000000000e+00 -9.115347106941e+02
          2.453274342771e+02 0.000000000000e+00 -9.264469895502e+02
          2.403366016961e+02 0.000000000000e+00 -9.284181966019e+02
          2.444600261404e+02 0.000000000000e+00 -9.313663143072e+02
          2.421848906145e+02 0.000000000000e+00 -9.462003835215e+02
          2.375211469177e+02 0.000000000000e+00 -9.482476855165e+02
          2.413174824779e+02 0.000000000000e+00 -9.511197082786e+02
          2.391741181193e+02 0.000000000000e+00 -9.655751887454e+02
          2.349692344739e+02 0.000000000000e+00 -9.673199969362e+02
          2.383067099827e+02 0.000000000000e+00 -9.704945135024e+02
          2.502526177137e+02 0.000000000000e+00 -9.981158361026e+02
          2.481815386869e+02 0.000000000000e+00 -9.952079973053e+02
          2.452471004029e+02 0.000000000000e+00 -9.971964957538e+02
          2.440434295128e+02 0.000000000000e+00 -9.893693321996e+02
          2.419763993655e+02 0.000000000000e+00 -9.864385058911e+02
          2.411089912288e+02 0.000000000000e+00 -9.913578306481e+02
          2.357116034045e+02 0.000000000000e+00 -9.845207136002e+02
          2.315138375909e+02 0.000000000000e+00 -9.855337476177e+02
          2.348441952679e+02 0.000000000000e+00 -9.894400383572e+02
          2.274573696649e+02 0.000000000000e+00 -1.022150315784e+03
          2.216476987506e+02 0.000000000000e+00 -1.023110620198e+03
          2.266493488191e+02 0.000000000000e+00 -1.026735187287e+03
          2.254655170716e+02 0.000000000000e+00 -1.041407276315e+03
          2.208960769473e+02 0.000000000000e+00 -1.043285055247e+03
          2.246574962259e+02 0.000000000000e+00 -1.045992147819e+03
          2.226551365929e+02 0.000000000000e+00 -1.059537875848e+03
          2.185073993730e+02 0.000000000000e+00 -1.061206768299e+03
          2.218471157471e+02 0.000000000000e+00 -1.064122747351e+03
          2.475728218136e+02 0.000000000000e+00 -1.084789952392e+03
          2.527582580580e+02 0.000000000000e+00 -1.084367477586e+03
          2.487656790546e+02 0.000000000000e+00 -1.079494128244e+03
          2.192775119332e+02 0.000000000000e+00 -1.077652002183e+03
          2.149842334368e+02 0.000000000000e+00 -1.079095534956e+03
          2.184694910874e+02 0.000000000000e+00 -1.082236873686e+03
          2.158653825162e+02 0.000000000000e+00 -1.096028537817e+03
          2.113920579859e+02 0.000000000000e+00 -1.097509120210e+03
          2.150573616704e+02 0.000000000000e+00 -1.100613409320e+03
          2.187226653548e+02 0.000000000000e+00 -1.103717698430e+03
          2.142493408246e+02 0.000000000000e+00 -1.105198280823e+03
          2.134288085506e+02 0.000000000000e+00 -1.109942023760e+03
          2.097635048662e+02 0.000000000000e+00 -1.106837734650e+03
          2.103278907271e+02 0.000000000000e+00 -1.128399123898e+03
          2.110047460132e+02 0.000000000000e+00 -1.123696638270e+03
          2.066500756145e+02 0.000000000000e+00 -1.125453706222e+03
          2.073070213600e+02 0.000000000000e+00 -1.146710546460e+03
          2.079038281897e+02 0.000000000000e+00 -1.142153738408e+03
          2.037603718071e+02 0.000000000000e+00 -1.143882742908e+03
          2.043091980711e+02 0.000000000000e+00 -1.164744419449e+03
          2.048829588227e+02 0.000000000000e+00 -1.160465160970e+03
          2.009737625343e+02 0.000000000000e+00 -1.161888552446e+03
          2.008982341981e+02 0.000000000000e+00 -1.182451393031e+03
          2.018851355337e+02 0.000000000000e+00 -1.178499033959e+03
          1.977970587555e+02 0.000000000000e+00 -1.179289913003e+03
          2.327685682568e+02 0.000000000000e+00 -1.173853436006e+03
          2.386931074940e+02 0.000000000000e+00 -1.172854372012e+03
          2.336551663222e+02 0.000000000000e+00 -1.168823936006e+03
          2.352594909168e+02 0.000000000000e+00 -1.152623383679e+03
          2.401285605524e+02 0.000000000000e+00 -1.150512267358e+03
          2.361460889821e+02 0.000000000000e+00 -1.147593883679e+03
          2.381341610468e+02 0.000000000000e+00 -1.132729104514e+03
          2.423315085511e+02 0.000000000000e+00 -1.130841709028e+03
          2.390207591122e+02 0.000000000000e+00 -1.127699604514e+03
          2.336993130619e+02 0.000000000000e+00 -1.106662642483e+03
          2.281422241891e+02 0.000000000000e+00 -1.108885784967e+03
          2.328127149965e+02 0.000000000000e+00 -1.111692142483e+03
          2.264476052780e+02 0.000000000000e+00 -1.118500156470e+03
          2.217771144706e+02 0.000000000000e+00 -1.115693798953e+03
          2.209690936248e+02 0.000000000000e+00 -1.120278670457e+03
          2.311180960854e+02 0.000000000000e+00 -1.121306513987e+03
          2.319261169312e+02 0.000000000000e+00 -1.116721642483e+03
          2.374832058039e+02 0.000000000000e+00 -1.114498500000e+03
          2.416121351078e+02 0.000000000000e+00 -1.113396247021e+03
          2.457410644116e+02 0.000000000000e+00 -1.112293994043e+03
          2.424987331731e+02 0.000000000000e+00 -1.108366747021e+03
          2.407255370424e+02 0.000000000000e+00 -1.118425747021e+03
          2.399073571775e+02 0.000000000000e+00 -1.122670104514e+03
          2.440362864813e+02 0.000000000000e+00 -1.121567851535e+03
          2.357100096732e+02 0.000000000000e+00 -1.124557500000e+03
          2.302314980200e+02 0.000000000000e+00 -1.126336013987e+03
          2.247529863668e+02 0.000000000000e+00 -1.128114527973e+03
          2.293448999547e+02 0.000000000000e+00 -1.131365513987e+03
          2.230583674557e+02 0.000000000000e+00 -1.137728899477e+03
          2.184664538679e+02 0.000000000000e+00 -1.134477913463e+03
          2.176584330221e+02 0.000000000000e+00 -1.139062784967e+03
          2.276502810435e+02 0.000000000000e+00 -1.140979885490e+03
          2.284583018893e+02 0.000000000000e+00 -1.136395013987e+03
          2.339368135425e+02 0.000000000000e+00 -1.134616500000e+03
          2.372475629815e+02 0.000000000000e+00 -1.137758604514e+03
          2.370326870475e+02 0.000000000000e+00 -1.142564383679e+03
          2.412300345518e+02 0.000000000000e+00 -1.140676988193e+03
          2.321636174118e+02 0.000000000000e+00 -1.144675500000e+03
          2.267636829782e+02 0.000000000000e+00 -1.146009385490e+03
          2.213637485445e+02 0.000000000000e+00 -1.147343270980e+03
          2.258770849128e+02 0.000000000000e+00 -1.151038885490e+03
          2.196691296334e+02 0.000000000000e+00 -1.156957642483e+03
          2.151557932651e+02 0.000000000000e+00 -1.153262027973e+03
          2.143477724193e+02 0.000000000000e+00 -1.157846899477e+03
          2.241824660017e+02 0.000000000000e+00 -1.160653256993e+03
          2.249904868475e+02 0.000000000000e+00 -1.156068385490e+03
          2.303904212811e+02 0.000000000000e+00 -1.154734500000e+03
          2.343728928514e+02 0.000000000000e+00 -1.157652883679e+03
          2.345417643875e+02 0.000000000000e+00 -1.163794436006e+03
          2.394108340232e+02 0.000000000000e+00 -1.161683319685e+03
          2.286172251504e+02 0.000000000000e+00 -1.164793500000e+03
          2.232958679363e+02 0.000000000000e+00 -1.165682756993e+03
          2.179745107222e+02 0.000000000000e+00 -1.166572013987e+03
          2.224092698710e+02 0.000000000000e+00 -1.170712256993e+03
          2.198280528945e+02 0.000000000000e+00 -1.185356128497e+03
          2.145852728999e+02 0.000000000000e+00 -1.185800756993e+03
          2.189414548291e+02 0.000000000000e+00 -1.190385628497e+03
          2.250708328890e+02 0.000000000000e+00 -1.184911500000e+03
          2.207146509598e+02 0.000000000000e+00 -1.180326628497e+03
          2.162798918111e+02 0.000000000000e+00 -1.176186385490e+03
          2.118451326624e+02 0.000000000000e+00 -1.172046142483e+03
          2.110371118166e+02 0.000000000000e+00 -1.176631013987e+03
          2.215226718056e+02 0.000000000000e+00 -1.175741756993e+03
          2.268440290197e+02 0.000000000000e+00 -1.174852500000e+03
          2.318819701915e+02 0.000000000000e+00 -1.178882936006e+03
          2.299107540412e+02 0.000000000000e+00 -1.184911500000e+03
          2.358352932783e+02 0.000000000000e+00 -1.183912436006e+03
          2.290241559758e+02 0.000000000000e+00 -1.189941000000e+03
          2.329774790627e+02 0.000000000000e+00 -1.194970500000e+03
          2.281375579105e+02 0.000000000000e+00 -1.194970500000e+03
          2.272509598451e+02 0.000000000000e+00 -1.200000000000e+03
          2.232976367583e+02 0.000000000000e+00 -1.194970500000e+03
          2.180548567638e+02 0.000000000000e+00 -1.195415128497e+03
          2.172468359180e+02 0.000000000000e+00 -1.200000000000e+03
          2.128906539888e+02 0.000000000000e+00 -1.195415128497e+03
          2.085344720596e+02 0.000000000000e+00 -1.190830256993e+03
          2.077264512138e+02 0.000000000000e+00 -1.195415128497e+03
          2.069184303680e+02 0.000000000000e+00 -1.200000000000e+03
          2.025622484388e+02 0.000000000000e+00 -1.195415128497e+03
          1.967103719032e+02 0.000000000000e+00 -1.200000000000e+03
          1.984741716607e+02 0.000000000000e+00 -1.196206007541e+03
          1.934303159709e+02 0.000000000000e+00 -1.196206007541e+03
          1.992821925065e+02 0.000000000000e+00 -1.191621136037e+03
          2.000902133523e+02 0.000000000000e+00 -1.187036264534e+03
          1.960021365742e+02 0.000000000000e+00 -1.187827143578e+03
          2.041782901304e+02 0.000000000000e+00 -1.186245385490e+03
          2.093424929054e+02 0.000000000000e+00 -1.186245385490e+03
          2.102290909708e+02 0.000000000000e+00 -1.181215885490e+03
          2.057943318220e+02 0.000000000000e+00 -1.177075642483e+03
          2.026931563795e+02 0.000000000000e+00 -1.173914162456e+03
          2.035011772253e+02 0.000000000000e+00 -1.169329290953e+03
          1.995919809369e+02 0.000000000000e+00 -1.170752682429e+03
          2.074103735136e+02 0.000000000000e+00 -1.167905899477e+03
          2.126531535082e+02 0.000000000000e+00 -1.167461270980e+03
          2.135397515735e+02 0.000000000000e+00 -1.162431770980e+03
          2.090264152052e+02 0.000000000000e+00 -1.158736156470e+03
          2.056909796684e+02 0.000000000000e+00 -1.155880289467e+03
          2.064990005142e+02 0.000000000000e+00 -1.151295417963e+03
          2.023555441317e+02 0.000000000000e+00 -1.153024422463e+03
          2.106424568968e+02 0.000000000000e+00 -1.149566413463e+03
          2.159638141109e+02 0.000000000000e+00 -1.148677156470e+03
          2.168504121763e+02 0.000000000000e+00 -1.143647656470e+03
          2.122584985884e+02 0.000000000000e+00 -1.140396670457e+03
          2.087118490355e+02 0.000000000000e+00 -1.137568866905e+03
          2.095198698813e+02 0.000000000000e+00 -1.132983995402e+03
          2.051651994826e+02 0.000000000000e+00 -1.134741063353e+03
          2.138745402800e+02 0.000000000000e+00 -1.131226927450e+03
          2.192744747137e+02 0.000000000000e+00 -1.129893041960e+03
          2.201610727790e+02 0.000000000000e+00 -1.124863541960e+03
          2.154905819716e+02 0.000000000000e+00 -1.122057184443e+03
          2.118127668590e+02 0.000000000000e+00 -1.119111766767e+03
          2.126207877048e+02 0.000000000000e+00 -1.114526895263e+03
          2.081349517464e+02 0.000000000000e+00 -1.116166349090e+03
          2.171066236632e+02 0.000000000000e+00 -1.112887441437e+03
          2.225851353164e+02 0.000000000000e+00 -1.111108927450e+03
          2.234717333818e+02 0.000000000000e+00 -1.106079427450e+03
          2.242797542276e+02 0.000000000000e+00 -1.101494555947e+03
          2.298368431003e+02 0.000000000000e+00 -1.099271413463e+03
          2.250877750733e+02 0.000000000000e+00 -1.096909684443e+03
          2.258957959191e+02 0.000000000000e+00 -1.092324812940e+03
          2.203387070464e+02 0.000000000000e+00 -1.094547955424e+03
          2.166734033620e+02 0.000000000000e+00 -1.091443666313e+03
          2.176614702416e+02 0.000000000000e+00 -1.086821745190e+03
          2.131881457114e+02 0.000000000000e+00 -1.088302327583e+03
          2.219547487380e+02 0.000000000000e+00 -1.085378212417e+03
          2.267551066217e+02 0.000000000000e+00 -1.087451463703e+03
          2.275631274675e+02 0.000000000000e+00 -1.082866592199e+03
          2.315041746487e+02 0.000000000000e+00 -1.089813192723e+03
          2.371125533782e+02 0.000000000000e+00 -1.087301572505e+03
          2.362532426756e+02 0.000000000000e+00 -1.092174921742e+03
          2.410023107026e+02 0.000000000000e+00 -1.094536650762e+03
          2.353939319730e+02 0.000000000000e+00 -1.097048270980e+03
          2.345859111273e+02 0.000000000000e+00 -1.101633142483e+03
          2.392564019346e+02 0.000000000000e+00 -1.104439500000e+03
          2.433853312385e+02 0.000000000000e+00 -1.103337247021e+03
          2.449948897059e+02 0.000000000000e+00 -1.099410000105e+03
          2.482372209443e+02 0.000000000000e+00 -1.103337247126e+03
          2.458542004084e+02 0.000000000000e+00 -1.094536650867e+03
          2.507060901143e+02 0.000000000000e+00 -1.094536650972e+03
          2.467135111110e+02 0.000000000000e+00 -1.089663301630e+03
          2.427209321077e+02 0.000000000000e+00 -1.084789952287e+03
          2.379718640807e+02 0.000000000000e+00 -1.082428223267e+03
          2.387798849265e+02 0.000000000000e+00 -1.077843351764e+03
          2.331715061970e+02 0.000000000000e+00 -1.080354971982e+03
          2.283711483133e+02 0.000000000000e+00 -1.078281720696e+03
          2.291791691591e+02 0.000000000000e+00 -1.073696849193e+03
          2.235707904296e+02 0.000000000000e+00 -1.076208469410e+03
          2.200855327790e+02 0.000000000000e+00 -1.073067130680e+03
          2.210390949013e+02 0.000000000000e+00 -1.068707618854e+03
          2.167458164049e+02 0.000000000000e+00 -1.070151151627e+03
          2.251868321212e+02 0.000000000000e+00 -1.067038726404e+03
          2.300384798617e+02 0.000000000000e+00 -1.068823499955e+03
          2.308465007075e+02 0.000000000000e+00 -1.064238628452e+03
          2.348388377454e+02 0.000000000000e+00 -1.070896751241e+03
          2.404985063317e+02 0.000000000000e+00 -1.068096653289e+03
          2.396391956291e+02 0.000000000000e+00 -1.072970002526e+03
          2.444395535128e+02 0.000000000000e+00 -1.075043253812e+03
          2.496249897572e+02 0.000000000000e+00 -1.074620779006e+03
          2.548104260016e+02 0.000000000000e+00 -1.074198304200e+03
          2.504843004598e+02 0.000000000000e+00 -1.069747429769e+03
          2.523378364319e+02 0.000000000000e+00 -1.059315439861e+03
          2.513436111623e+02 0.000000000000e+00 -1.064874080531e+03
          2.566639619738e+02 0.000000000000e+00 -1.063766314292e+03
          2.461581749179e+02 0.000000000000e+00 -1.065296555337e+03
          2.413578170342e+02 0.000000000000e+00 -1.063223304051e+03
          2.421658378800e+02 0.000000000000e+00 -1.058638432548e+03
          2.365061692937e+02 0.000000000000e+00 -1.061438530500e+03
          2.316545215533e+02 0.000000000000e+00 -1.059653756948e+03
          2.324625423991e+02 0.000000000000e+00 -1.055068885445e+03
          2.268028738128e+02 0.000000000000e+00 -1.057868983397e+03
          2.234631574387e+02 0.000000000000e+00 -1.054953004344e+03
          2.238494753801e+02 0.000000000000e+00 -1.050577019322e+03
          2.197017381602e+02 0.000000000000e+00 -1.052245911773e+03
          2.284189155044e+02 0.000000000000e+00 -1.048699240390e+03
          2.333218531016e+02 0.000000000000e+00 -1.050195536207e+03
          2.341298739474e+02 0.000000000000e+00 -1.045610664704e+03
          2.381735008421e+02 0.000000000000e+00 -1.051980309759e+03
          2.438844592852e+02 0.000000000000e+00 -1.048891734073e+03
          2.430251485826e+02 0.000000000000e+00 -1.053765083310e+03
          2.478767963231e+02 0.000000000000e+00 -1.055549856862e+03
          2.531971471345e+02 0.000000000000e+00 -1.054442090623e+03
          2.585174979459e+02 0.000000000000e+00 -1.053334324384e+03
          2.540564578371e+02 0.000000000000e+00 -1.049568741385e+03
          2.555232707412e+02 0.000000000000e+00 -1.039329688564e+03
          2.549157685396e+02 0.000000000000e+00 -1.044695392148e+03
          2.599843108501e+02 0.000000000000e+00 -1.043095271563e+03
          2.495954177282e+02 0.000000000000e+00 -1.045803158387e+03
          2.447437699877e+02 0.000000000000e+00 -1.044018384835e+03
          2.455517908335e+02 0.000000000000e+00 -1.039433513332e+03
          2.398408323905e+02 0.000000000000e+00 -1.042522089018e+03
          2.349378947932e+02 0.000000000000e+00 -1.041025793201e+03
          2.357459156390e+02 0.000000000000e+00 -1.036440921698e+03
          2.300349571960e+02 0.000000000000e+00 -1.039529497384e+03
          2.262735379174e+02 0.000000000000e+00 -1.036822404812e+03
          2.258413279733e+02 0.000000000000e+00 -1.031320058791e+03
          2.212718878490e+02 0.000000000000e+00 -1.033197837722e+03
          2.316509988876e+02 0.000000000000e+00 -1.030359754377e+03
          2.366052263416e+02 0.000000000000e+00 -1.031567572460e+03
          2.374132471874e+02 0.000000000000e+00 -1.026982700957e+03
          2.415081639388e+02 0.000000000000e+00 -1.033063868277e+03
          2.472704122387e+02 0.000000000000e+00 -1.029686814857e+03
          2.464111015361e+02 0.000000000000e+00 -1.034560164094e+03
          2.513140391333e+02 0.000000000000e+00 -1.036056459912e+03
          2.563825814438e+02 0.000000000000e+00 -1.034456339327e+03
          2.614511237542e+02 0.000000000000e+00 -1.032856218742e+03
          2.572418921463e+02 0.000000000000e+00 -1.029582990089e+03
          2.588173889585e+02 0.000000000000e+00 -1.019697043910e+03
          2.581012028489e+02 0.000000000000e+00 -1.024709640851e+03
          2.630266205664e+02 0.000000000000e+00 -1.022970272562e+03
          2.530326605385e+02 0.000000000000e+00 -1.026309761436e+03
          2.481297229412e+02 0.000000000000e+00 -1.024813465619e+03
          2.489377437870e+02 0.000000000000e+00 -1.020228594116e+03
          2.431754954872e+02 0.000000000000e+00 -1.023605647536e+03
          2.382212680332e+02 0.000000000000e+00 -1.022397829453e+03
          2.390292888790e+02 0.000000000000e+00 -1.017812957950e+03
          2.332670405792e+02 0.000000000000e+00 -1.021190011370e+03
          2.282653905107e+02 0.000000000000e+00 -1.017565444281e+03
          2.299391834206e+02 0.000000000000e+00 -1.012020468529e+03
          2.241295125063e+02 0.000000000000e+00 -1.012980772942e+03
          2.348830822708e+02 0.000000000000e+00 -1.012020268364e+03
          2.307472042664e+02 0.000000000000e+00 -1.007435597025e+03
          2.266113262620e+02 0.000000000000e+00 -1.002850925687e+03
          2.315552251122e+02 0.000000000000e+00 -1.002850725522e+03
          2.323632459580e+02 0.000000000000e+00 -9.982658540186e+02
          2.364991239624e+02 0.000000000000e+00 -1.002850525357e+03
          2.339767871312e+02 0.000000000000e+00 -9.943593631142e+02
          2.290328882810e+02 0.000000000000e+00 -9.943595632791e+02
          2.381745529448e+02 0.000000000000e+00 -9.933463290967e+02
          2.402415830922e+02 0.000000000000e+00 -9.962771554051e+02
          2.423126621189e+02 0.000000000000e+00 -9.991849942024e+02
          2.415046412731e+02 0.000000000000e+00 -1.003769865706e+03
          2.465101585839e+02 0.000000000000e+00 -1.004689206054e+03
          2.406966204273e+02 0.000000000000e+00 -1.008354737209e+03
          2.398885995815e+02 0.000000000000e+00 -1.012939608712e+03
          2.448428270356e+02 0.000000000000e+00 -1.014147426795e+03
          2.506563651921e+02 0.000000000000e+00 -1.010481895641e+03
          2.497970544896e+02 0.000000000000e+00 -1.015355244878e+03
          2.547512819436e+02 0.000000000000e+00 -1.016563062961e+03
          2.596766996610e+02 0.000000000000e+00 -1.014823694672e+03
          2.646021173785e+02 0.000000000000e+00 -1.013084326383e+03
          2.605360103636e+02 0.000000000000e+00 -1.009950345435e+03
          2.622910414112e+02 0.000000000000e+00 -1.000118419303e+03
          2.613953210662e+02 0.000000000000e+00 -1.005076996197e+03
          2.663571484261e+02 0.000000000000e+00 -1.003252400251e+03
          2.564699033487e+02 0.000000000000e+00 -1.006816364486e+03
          2.515156758947e+02 0.000000000000e+00 -1.005608546403e+03
          2.523236967405e+02 0.000000000000e+00 -1.001023674900e+03
          2.552581350245e+02 0.000000000000e+00 -9.990351764513e+02
          2.581885247538e+02 0.000000000000e+00 -9.970696660110e+02
          2.561174457271e+02 0.000000000000e+00 -9.941618272137e+02
          2.631503521137e+02 0.000000000000e+00 -9.952450700651e+02
          2.681121794736e+02 0.000000000000e+00 -9.934204741192e+02
          2.640096628163e+02 0.000000000000e+00 -9.903717208275e+02
          2.578360671322e+02 0.000000000000e+00 -9.844151287386e+02
          2.557690369849e+02 0.000000000000e+00 -9.814843024301e+02
          2.528386472555e+02 0.000000000000e+00 -9.834498128704e+02
          2.466335079340e+02 0.000000000000e+00 -9.746803214562e+02
          2.457741972315e+02 0.000000000000e+00 -9.795536706938e+02
          2.516309278107e+02 0.000000000000e+00 -9.756456373244e+02
          2.665256059211e+02 0.000000000000e+00 -9.755796093173e+02
          2.714254442780e+02 0.000000000000e+00 -9.735829495738e+02
          2.673849166236e+02 0.000000000000e+00 -9.707062600797e+02
          2.633443889692e+02 0.000000000000e+00 -9.678295705856e+02
          2.682442273262e+02 0.000000000000e+00 -9.658329108421e+02
          2.687610943719e+02 0.000000000000e+00 -9.608925914374e+02
          2.728016220263e+02 0.000000000000e+00 -9.637692809315e+02
          2.717580296375e+02 0.000000000000e+00 -9.417201202939e+02
          2.713390264796e+02 0.000000000000e+00 -9.462725437247e+02
          2.754561136350e+02 0.000000000000e+00 -9.445298396209e+02
          2.752052603802e+02 0.000000000000e+00 -9.229630300204e+02
          2.743359617452e+02 0.000000000000e+00 -9.271000725812e+02
          2.784630368331e+02 0.000000000000e+00 -9.260936751542e+02
          2.794020263205e+02 0.000000000000e+00 -9.044760302781e+02
          2.777831924879e+02 0.000000000000e+00 -9.083429823077e+02
          2.826697907058e+02 0.000000000000e+00 -9.083429820886e+02
          2.631303122227e+02 0.000000000000e+00 -8.811222539632e+02
          2.600379258184e+02 0.000000000000e+00 -8.840064311947e+02
          2.650432979532e+02 0.000000000000e+00 -8.849268254725e+02
          2.574357014084e+02 0.000000000000e+00 -8.987644054657e+02
          2.568520548358e+02 0.000000000000e+00 -9.020744300239e+02
          2.596324487030e+02 0.000000000000e+00 -9.009596767762e+02
          2.542498304258e+02 0.000000000000e+00 -9.168324042949e+02
          2.561588025691e+02 0.000000000000e+00 -9.206597001680e+02
          2.592229580003e+02 0.000000000000e+00 -9.179356467214e+02
          2.641960855747e+02 0.000000000000e+00 -9.190388891479e+02
          2.622871134315e+02 0.000000000000e+00 -9.152115932748e+02
          2.750540422229e+02 0.000000000000e+00 -8.867676140280e+02
          2.741462920917e+02 0.000000000000e+00 -8.919157624532e+02
          2.772386784960e+02 0.000000000000e+00 -8.890315852216e+02
          2.710539056874e+02 0.000000000000e+00 -8.947999396847e+02
          2.732385419606e+02 0.000000000000e+00 -8.970639108783e+02
          2.688692694143e+02 0.000000000000e+00 -8.925359684911e+02
          2.679615192831e+02 0.000000000000e+00 -8.976841169163e+02
          2.651932364373e+02 0.000000000000e+00 -8.987301702807e+02
          2.673778727105e+02 0.000000000000e+00 -9.009941414744e+02
          2.667942261379e+02 0.000000000000e+00 -9.043041660325e+02
          2.695625089836e+02 0.000000000000e+00 -9.032581126680e+02
          2.640259432921e+02 0.000000000000e+00 -9.053502193970e+02
          2.662105795652e+02 0.000000000000e+00 -9.076141905906e+02
          2.681195517084e+02 0.000000000000e+00 -9.114414864637e+02
          2.700285238517e+02 0.000000000000e+00 -9.152687823368e+02
          2.708878345542e+02 0.000000000000e+00 -9.103954330992e+02
          2.653512688627e+02 0.000000000000e+00 -9.124875398282e+02
          2.603781412882e+02 0.000000000000e+00 -9.113842974017e+02
          2.612455494249e+02 0.000000000000e+00 -9.064649726447e+02
          2.581813939937e+02 0.000000000000e+00 -9.091890260913e+02
          2.618291959975e+02 0.000000000000e+00 -9.031549480866e+02
          2.624128425702e+02 0.000000000000e+00 -8.998449235284e+02
          2.629964891428e+02 0.000000000000e+00 -8.965348989703e+02
          2.638638972794e+02 0.000000000000e+00 -8.916155742133e+02
          2.610835034123e+02 0.000000000000e+00 -8.927303274610e+02
          2.669562836838e+02 0.000000000000e+00 -8.887313969818e+02
          2.700486700881e+02 0.000000000000e+00 -8.858472197502e+02
          2.731410564924e+02 0.000000000000e+00 -8.829630425187e+02
          2.740084646290e+02 0.000000000000e+00 -8.780437177616e+02
          2.690030924942e+02 0.000000000000e+00 -8.771233234839e+02
          2.666402867638e+02 0.000000000000e+00 -8.612161312669e+02
          2.657325366327e+02 0.000000000000e+00 -8.663642796921e+02
          2.707782507620e+02 0.000000000000e+00 -8.670558503017e+02
          2.850499215636e+02 0.000000000000e+00 -8.777276569675e+02
          2.910456643688e+02 0.000000000000e+00 -8.767200255638e+02
          2.859576716947e+02 0.000000000000e+00 -8.725795085423e+02
          2.808696790206e+02 0.000000000000e+00 -8.684389915208e+02
          2.868654218259e+02 0.000000000000e+00 -8.674313601171e+02
          2.867181868437e+02 0.000000000000e+00 -8.611489804278e+02
          2.918061795178e+02 0.000000000000e+00 -8.652894974493e+02
          2.896707017703e+02 0.000000000000e+00 -8.407805201222e+02
          2.894414372371e+02 0.000000000000e+00 -8.457045351523e+02
          2.937037093310e+02 0.000000000000e+00 -8.437868058796e+02
          2.932256152518e+02 0.000000000000e+00 -8.209859981723e+02
          2.923939521637e+02 0.000000000000e+00 -8.253360748466e+02
          2.965801372145e+02 0.000000000000e+00 -8.242164173248e+02
          2.975682498327e+02 0.000000000000e+00 -8.015129193514e+02
          2.959488656453e+02 0.000000000000e+00 -8.055415528967e+02
          3.008466847523e+02 0.000000000000e+00 -8.055414102548e+02
          3.025518214126e+02 0.000000000000e+00 -7.777456920642e+02
          3.084093573897e+02 0.000000000000e+00 -7.767989206413e+02
          3.033565923545e+02 0.000000000000e+00 -7.731815723629e+02
          2.983038273193e+02 0.000000000000e+00 -7.695642240844e+02
          3.041613632965e+02 0.000000000000e+00 -7.686174526616e+02
          3.038490841053e+02 0.000000000000e+00 -7.630224706953e+02
          3.089018491405e+02 0.000000000000e+00 -7.666398189738e+02
          3.065011822119e+02 0.000000000000e+00 -7.448189519366e+02
          3.062633969311e+02 0.000000000000e+00 -7.493301115915e+02
          3.104368971140e+02 0.000000000000e+00 -7.474054379501e+02
          3.095523059553e+02 0.000000000000e+00 -7.268500609354e+02
          3.089154950377e+02 0.000000000000e+00 -7.311265928328e+02
          3.129210351962e+02 0.000000000000e+00 -7.294895069952e+02
          3.128679125314e+02 0.000000000000e+00 -7.088285859505e+02
          3.119666187811e+02 0.000000000000e+00 -7.131577018316e+02
          3.160686817479e+02 0.000000000000e+00 -7.117556198142e+02
          3.162690965016e+02 0.000000000000e+00 -6.906356514529e+02
          3.152822253573e+02 0.000000000000e+00 -6.951362268466e+02
          3.195663885264e+02 0.000000000000e+00 -6.937976891367e+02
          3.195804874815e+02 0.000000000000e+00 -6.722760777727e+02
          3.186834093274e+02 0.000000000000e+00 -6.769432923491e+02
          3.230598797087e+02 0.000000000000e+00 -6.755016597640e+02
          3.226803468453e+02 0.000000000000e+00 -6.539150432382e+02
          3.219948003073e+02 0.000000000000e+00 -6.585837186688e+02
          3.262520462845e+02 0.000000000000e+00 -6.570375303544e+02
          3.256069607879e+02 0.000000000000e+00 -6.358353011254e+02
          3.250946596711e+02 0.000000000000e+00 -6.402226841343e+02
          3.290594358232e+02 0.000000000000e+00 -6.388532325122e+02
          3.288762061549e+02 0.000000000000e+00 -6.181473881078e+02
          3.280212736137e+02 0.000000000000e+00 -6.221429420215e+02
          3.320362113650e+02 0.000000000000e+00 -6.213420561869e+02
          3.328463492367e+02 0.000000000000e+00 -6.006932142207e+02
          3.312905189807e+02 0.000000000000e+00 -6.044550290040e+02
          3.360565160460e+02 0.000000000000e+00 -6.044564480873e+02
          3.336483412328e+02 0.000000000000e+00 -5.961320370585e+02
          3.288823441675e+02 0.000000000000e+00 -5.961306179751e+02
          3.146523069708e+02 0.000000000000e+00 -5.889126888677e+02
          3.138503149747e+02 0.000000000000e+00 -5.934738660299e+02
          3.193956527030e+02 0.000000000000e+00 -5.913186652368e+02
          3.265458620106e+02 0.000000000000e+00 -5.800489227887e+02
          3.320903121519e+02 0.000000000000e+00 -5.778859093263e+02
          3.273478540067e+02 0.000000000000e+00 -5.754877456265e+02
          3.257429824275e+02 0.000000000000e+00 -5.846022872815e+02
          3.210005242823e+02 0.000000000000e+00 -5.822041235818e+02
          3.249409904314e+02 0.000000000000e+00 -5.891634644437e+02
          3.304863281597e+02 0.000000000000e+00 -5.870082636507e+02
          3.241389984353e+02 0.000000000000e+00 -5.937246416060e+02
          3.233370064392e+02 0.000000000000e+00 -5.982858187682e+02
          3.225341268560e+02 0.000000000000e+00 -6.028391832610e+02
          3.177907811238e+02 0.000000000000e+00 -6.004332068918e+02
          3.114416762253e+02 0.000000000000e+00 -6.071339595083e+02
          3.106369052833e+02 0.000000000000e+00 -6.116980792095e+02
          3.161831305987e+02 0.000000000000e+00 -6.095506910859e+02
          3.209245849721e+02 0.000000000000e+00 -6.119674226635e+02
          3.217293559141e+02 0.000000000000e+00 -6.074033029622e+02
          3.272755812295e+02 0.000000000000e+00 -6.052559148386e+02
          3.304857480388e+02 0.000000000000e+00 -6.090191487053e+02
          3.296809770968e+02 0.000000000000e+00 -6.135832684065e+02
          3.336959148481e+02 0.000000000000e+00 -6.127823825719e+02
          3.256660393456e+02 0.000000000000e+00 -6.143841542411e+02
          3.201198140302e+02 0.000000000000e+00 -6.165315423648e+02
          3.193169344471e+02 0.000000000000e+00 -6.210849068576e+02
          3.145754800736e+02 0.000000000000e+00 -6.186681752799e+02
          3.082282665339e+02 0.000000000000e+00 -6.253581726879e+02
          3.074234955920e+02 0.000000000000e+00 -6.299222923892e+02
          3.129678295485e+02 0.000000000000e+00 -6.277856594740e+02
          3.177073925632e+02 0.000000000000e+00 -6.302131462601e+02
          3.185121635051e+02 0.000000000000e+00 -6.256490265588e+02
          3.240564974617e+02 0.000000000000e+00 -6.235123936437e+02
          3.272165026718e+02 0.000000000000e+00 -6.267070617228e+02
          3.264117317298e+02 0.000000000000e+00 -6.312711814241e+02
          3.303765078819e+02 0.000000000000e+00 -6.299017298020e+02
          3.224469555778e+02 0.000000000000e+00 -6.326406330462e+02
          3.169026216212e+02 0.000000000000e+00 -6.347772659614e+02
          3.160997420381e+02 0.000000000000e+00 -6.393306304542e+02
          3.113601790235e+02 0.000000000000e+00 -6.369031436681e+02
          3.050148568426e+02 0.000000000000e+00 -6.435823858675e+02
          3.042100859006e+02 0.000000000000e+00 -6.481465055688e+02
          3.097525284984e+02 0.000000000000e+00 -6.460206278621e+02
          3.144902001542e+02 0.000000000000e+00 -6.484588698567e+02
          3.152949710961e+02 0.000000000000e+00 -6.438947501555e+02
          3.208374136939e+02 0.000000000000e+00 -6.417688724488e+02
          3.242898887292e+02 0.000000000000e+00 -6.447868038356e+02
          3.234851177872e+02 0.000000000000e+00 -6.493509235369e+02
          3.277423637645e+02 0.000000000000e+00 -6.478047352225e+02
          3.192278718100e+02 0.000000000000e+00 -6.508971118513e+02
          3.136854292122e+02 0.000000000000e+00 -6.530229895580e+02
          3.128825496291e+02 0.000000000000e+00 -6.575763540508e+02
          3.081448779733e+02 0.000000000000e+00 -6.551381120562e+02
          3.018014471512e+02 0.000000000000e+00 -6.618065990472e+02
          3.009966762093e+02 0.000000000000e+00 -6.663707187485e+02
          3.065372274482e+02 0.000000000000e+00 -6.642555962503e+02
          3.112730077452e+02 0.000000000000e+00 -6.667045934533e+02
          3.120777786871e+02 0.000000000000e+00 -6.621404737521e+02
          3.176183299261e+02 0.000000000000e+00 -6.600253512539e+02
          3.211900293654e+02 0.000000000000e+00 -6.631478383701e+02
          3.203852584234e+02 0.000000000000e+00 -6.677119580714e+02
          3.247617288046e+02 0.000000000000e+00 -6.662703254864e+02
          3.160087880422e+02 0.000000000000e+00 -6.691535906564e+02
          3.104682368033e+02 0.000000000000e+00 -6.712687131546e+02
          3.096653572201e+02 0.000000000000e+00 -6.758220776474e+02
          3.049295769231e+02 0.000000000000e+00 -6.733730804443e+02
          2.985880374599e+02 0.000000000000e+00 -6.800308122268e+02
          2.977832665179e+02 0.000000000000e+00 -6.845949319281e+02
          3.033219263981e+02 0.000000000000e+00 -6.824905646384e+02
          3.080558153362e+02 0.000000000000e+00 -6.849503170499e+02
          3.088605862782e+02 0.000000000000e+00 -6.803861973487e+02
          3.143992461583e+02 0.000000000000e+00 -6.782818300590e+02
          3.178786383855e+02 0.000000000000e+00 -6.815074120503e+02
          3.170738674435e+02 0.000000000000e+00 -6.860715317516e+02
          3.213580306127e+02 0.000000000000e+00 -6.847329940417e+02
          3.127897042744e+02 0.000000000000e+00 -6.874100694615e+02
          3.072510443943e+02 0.000000000000e+00 -6.895144367512e+02
          3.064481648111e+02 0.000000000000e+00 -6.940678012440e+02
          3.017142758730e+02 0.000000000000e+00 -6.916080488325e+02
          2.967136445667e+02 0.000000000000e+00 -7.199681750376e+02
          3.015325906527e+02 0.000000000000e+00 -7.219456010546e+02
          3.023373615947e+02 0.000000000000e+00 -7.173814813534e+02
          2.918946984807e+02 0.000000000000e+00 -7.179907490206e+02
          2.910899275387e+02 0.000000000000e+00 -7.225548687219e+02
          2.871627009013e+02 0.000000000000e+00 -7.155202414005e+02
          2.927864179293e+02 0.000000000000e+00 -7.129335477163e+02
          2.984101349573e+02 0.000000000000e+00 -7.103468540321e+02
          2.936781373780e+02 0.000000000000e+00 -7.078763464120e+02
          2.889461397986e+02 0.000000000000e+00 -7.054058387920e+02
          2.945698568266e+02 0.000000000000e+00 -7.028191451078e+02
          2.953746277685e+02 0.000000000000e+00 -6.982550254065e+02
          3.001066253479e+02 0.000000000000e+00 -7.007255330265e+02
          3.048386229272e+02 0.000000000000e+00 -7.031960406466e+02
          3.056433938692e+02 0.000000000000e+00 -6.986319209453e+02
          3.111801623905e+02 0.000000000000e+00 -6.965383088640e+02
          3.144774544153e+02 0.000000000000e+00 -6.997003465479e+02
          3.136726834734e+02 0.000000000000e+00 -7.042644662492e+02
          3.177747464401e+02 0.000000000000e+00 -7.028623842318e+02
          3.095706205066e+02 0.000000000000e+00 -7.056665482666e+02
          3.040338519853e+02 0.000000000000e+00 -7.077601603478e+02
          3.031421325366e+02 0.000000000000e+00 -7.128173616521e+02
          3.079610786227e+02 0.000000000000e+00 -7.147947876691e+02
          3.111618478392e+02 0.000000000000e+00 -7.177218215328e+02
          3.103570768972e+02 0.000000000000e+00 -7.222859412341e+02
          3.143626170557e+02 0.000000000000e+00 -7.206488553965e+02
          3.063515367388e+02 0.000000000000e+00 -7.239230270717e+02
          3.007278197108e+02 0.000000000000e+00 -7.265097207559e+02
          2.998361002622e+02 0.000000000000e+00 -7.315669220602e+02
          2.950171541761e+02 0.000000000000e+00 -7.295894960432e+02
          2.884147691928e+02 0.000000000000e+00 -7.377264726347e+02
          2.876099982508e+02 0.000000000000e+00 -7.422905923359e+02
          2.933206637855e+02 0.000000000000e+00 -7.392108170487e+02
          2.982265583783e+02 0.000000000000e+00 -7.406951614627e+02
          2.990313293202e+02 0.000000000000e+00 -7.361310417615e+02
          3.047419948549e+02 0.000000000000e+00 -7.330512664742e+02
          3.081107240958e+02 0.000000000000e+00 -7.356907125341e+02
          3.073059531538e+02 0.000000000000e+00 -7.402548322354e+02
          3.114794533367e+02 0.000000000000e+00 -7.383301585940e+02
          3.031324529710e+02 0.000000000000e+00 -7.421795058768e+02
          2.974217874363e+02 0.000000000000e+00 -7.452592811640e+02
          2.965300679877e+02 0.000000000000e+00 -7.503164824683e+02
          2.916241733949e+02 0.000000000000e+00 -7.488321380543e+02
          2.849348399049e+02 0.000000000000e+00 -7.574621962488e+02
          2.841300689629e+02 0.000000000000e+00 -7.620263159500e+02
          2.899276830043e+02 0.000000000000e+00 -7.584534590598e+02
          2.949205261038e+02 0.000000000000e+00 -7.594447218708e+02
          2.957252970457e+02 0.000000000000e+00 -7.548806021696e+02
          3.015229110871e+02 0.000000000000e+00 -7.513077452793e+02
          3.054586259892e+02 0.000000000000e+00 -7.538942312927e+02
          3.046538550472e+02 0.000000000000e+00 -7.584583509940e+02
          3.093943408913e+02 0.000000000000e+00 -7.564807173062e+02
          2.999133692032e+02 0.000000000000e+00 -7.604359846819e+02
          2.941157551618e+02 0.000000000000e+00 -7.640088415721e+02
          2.932240357132e+02 0.000000000000e+00 -7.690660428764e+02
          2.882311926137e+02 0.000000000000e+00 -7.680747800654e+02
          2.924192647712e+02 0.000000000000e+00 -7.736301625777e+02
          2.865347022231e+02 0.000000000000e+00 -7.776961010709e+02
          2.916144938293e+02 0.000000000000e+00 -7.781942822789e+02
          2.814549106170e+02 0.000000000000e+00 -7.771979198629e+02
          2.806501396751e+02 0.000000000000e+00 -7.817620395641e+02
          2.798453687331e+02 0.000000000000e+00 -7.863261592654e+02
          2.849251603392e+02 0.000000000000e+00 -7.868243404734e+02
          2.892001810034e+02 0.000000000000e+00 -7.918866413827e+02
          2.900049519454e+02 0.000000000000e+00 -7.873225216815e+02
          2.908097228873e+02 0.000000000000e+00 -7.827584019802e+02
          2.950847435515e+02 0.000000000000e+00 -7.878207028895e+02
          2.966942854354e+02 0.000000000000e+00 -7.786924634870e+02
          3.017470504706e+02 0.000000000000e+00 -7.823098117654e+02
          2.999825626586e+02 0.000000000000e+00 -7.878205602476e+02
          3.058400986357e+02 0.000000000000e+00 -7.868737888248e+02
          2.991777917166e+02 0.000000000000e+00 -7.923846799489e+02
          3.032708398817e+02 0.000000000000e+00 -7.969486570083e+02
          2.983730207747e+02 0.000000000000e+00 -7.969487996502e+02
          2.934752016676e+02 0.000000000000e+00 -7.969489422920e+02
          2.883954100615e+02 0.000000000000e+00 -7.964507610840e+02
          2.875036906128e+02 0.000000000000e+00 -8.015079623883e+02
          2.832286699486e+02 0.000000000000e+00 -7.964456614790e+02
          2.778788838332e+02 0.000000000000e+00 -8.267859575729e+02
          2.820975318204e+02 0.000000000000e+00 -8.321680292713e+02
          2.830052819516e+02 0.000000000000e+00 -8.270198808461e+02
          2.736602358461e+02 0.000000000000e+00 -8.214038858745e+02
          2.727524857149e+02 0.000000000000e+00 -8.265520342997e+02
          2.694012458644e+02 0.000000000000e+00 -8.162506378442e+02
          2.745276439827e+02 0.000000000000e+00 -8.164845611175e+02
          2.796540421010e+02 0.000000000000e+00 -8.167184843907e+02
          2.753950521194e+02 0.000000000000e+00 -8.115652363604e+02
          2.711360621377e+02 0.000000000000e+00 -8.064119883302e+02
          2.762624602560e+02 0.000000000000e+00 -8.066459116034e+02
          2.771702103872e+02 0.000000000000e+00 -8.014977631782e+02
          2.814292003688e+02 0.000000000000e+00 -8.066510112085e+02
          2.856881903505e+02 0.000000000000e+00 -8.118042592387e+02
          2.865959404817e+02 0.000000000000e+00 -8.066561108135e+02
          2.917626805945e+02 0.000000000000e+00 -8.066612104185e+02
          2.950411155141e+02 0.000000000000e+00 -8.106897013219e+02
          2.941333653830e+02 0.000000000000e+00 -8.158378497471e+02
          2.983195504337e+02 0.000000000000e+00 -8.147181922253e+02
          2.899471803322e+02 0.000000000000e+00 -8.169575072689e+02
          2.847804402194e+02 0.000000000000e+00 -8.169524076639e+02
          2.839130320827e+02 0.000000000000e+00 -8.218717324209e+02
          2.881316800699e+02 0.000000000000e+00 -8.272538041193e+02
          2.914862020326e+02 0.000000000000e+00 -8.304842232718e+02
          2.905784519014e+02 0.000000000000e+00 -8.356323716970e+02
          2.948407239953e+02 0.000000000000e+00 -8.337146424243e+02
          2.863161798076e+02 0.000000000000e+00 -8.375501009697e+02
          2.811897816892e+02 0.000000000000e+00 -8.373161776965e+02
          2.803223735526e+02 0.000000000000e+00 -8.422355024535e+02
          2.761037255654e+02 0.000000000000e+00 -8.368534307551e+02
          2.701502613049e+02 0.000000000000e+00 -8.413100085707e+02
          2.692425111738e+02 0.000000000000e+00 -8.464581569959e+02
          2.743285672976e+02 0.000000000000e+00 -8.469209039373e+02
          2.785068732903e+02 0.000000000000e+00 -8.525317993039e+02
          2.794146234214e+02 0.000000000000e+00 -8.473836508787e+02
          2.845006795453e+02 0.000000000000e+00 -8.478463978201e+02
          2.885336871060e+02 0.000000000000e+00 -8.508526835774e+02
          2.876259369748e+02 0.000000000000e+00 -8.560008320026e+02
          2.925666946667e+02 0.000000000000e+00 -8.538589693348e+02
          2.826851792830e+02 0.000000000000e+00 -8.581426946704e+02
          2.775991231591e+02 0.000000000000e+00 -8.576799477291e+02
          2.767317150225e+02 0.000000000000e+00 -8.625992724861e+02
          2.725534090298e+02 0.000000000000e+00 -8.569883771195e+02
          2.758239648913e+02 0.000000000000e+00 -8.677474209113e+02
          2.749162147602e+02 0.000000000000e+00 -8.728955693364e+02
          2.790541787583e+02 0.000000000000e+00 -8.787352883712e+02
          2.841421714324e+02 0.000000000000e+00 -8.828758053927e+02
          2.821252767140e+02 0.000000000000e+00 -8.890315850025e+02
          2.881210195192e+02 0.000000000000e+00 -8.880239535988e+02
          2.812175265828e+02 0.000000000000e+00 -8.941797334277e+02
          2.851963746696e+02 0.000000000000e+00 -8.993278816338e+02
          2.803097764517e+02 0.000000000000e+00 -8.993278818529e+02
          2.754231782337e+02 0.000000000000e+00 -8.993278820720e+02
          2.723307918294e+02 0.000000000000e+00 -9.022120593035e+02
          2.717471452568e+02 0.000000000000e+00 -9.055220838617e+02
          2.736561174000e+02 0.000000000000e+00 -9.093493797347e+02
          2.769238817853e+02 0.000000000000e+00 -9.132163315452e+02
          2.760645710828e+02 0.000000000000e+00 -9.180896807828e+02
          2.801916461707e+02 0.000000000000e+00 -9.170832833557e+02
          2.719374959949e+02 0.000000000000e+00 -9.190960782099e+02
          2.691692131491e+02 0.000000000000e+00 -9.201421315744e+02
          2.661050577179e+02 0.000000000000e+00 -9.228661850210e+02
          2.652376495812e+02 0.000000000000e+00 -9.277855097780e+02
          2.602645220068e+02 0.000000000000e+00 -9.266822673515e+02
          2.535565781591e+02 0.000000000000e+00 -9.354176744390e+02
          2.526972674565e+02 0.000000000000e+00 -9.402910236766e+02
          2.585378031676e+02 0.000000000000e+00 -9.364749413461e+02
          2.635190281761e+02 0.000000000000e+00 -9.375322082531e+02
          2.643783388787e+02 0.000000000000e+00 -9.326588590155e+02
          2.702188745897e+02 0.000000000000e+00 -9.288427766850e+02
          2.734766510427e+02 0.000000000000e+00 -9.319734218188e+02
          2.726173403401e+02 0.000000000000e+00 -9.368467710564e+02
          2.767344274956e+02 0.000000000000e+00 -9.351040669526e+02
          2.685002531846e+02 0.000000000000e+00 -9.385894751602e+02
          2.626597174735e+02 0.000000000000e+00 -9.424055574907e+02
          2.617923093369e+02 0.000000000000e+00 -9.473248822477e+02
          2.568110843284e+02 0.000000000000e+00 -9.462676153407e+02
          2.500950430466e+02 0.000000000000e+00 -9.550489979476e+02
          2.492357323440e+02 0.000000000000e+00 -9.599223471852e+02
          2.550843654892e+02 0.000000000000e+00 -9.560602893352e+02
          2.600736879318e+02 0.000000000000e+00 -9.570715807228e+02
          2.609329986343e+02 0.000000000000e+00 -9.521982314853e+02
          2.667816317795e+02 0.000000000000e+00 -9.483361736353e+02
          2.704797157770e+02 0.000000000000e+00 -9.511458929622e+02
          2.696204050744e+02 0.000000000000e+00 -9.560192421998e+02
          2.741777997745e+02 0.000000000000e+00 -9.539556122892e+02
          2.650630103744e+02 0.000000000000e+00 -9.580828721105e+02
          2.592143772292e+02 0.000000000000e+00 -9.619449299604e+02
          2.583469690925e+02 0.000000000000e+00 -9.668642547174e+02
          2.533576466499e+02 0.000000000000e+00 -9.658529633298e+02
          2.574876583900e+02 0.000000000000e+00 -9.717376039550e+02
          2.566283476874e+02 0.000000000000e+00 -9.766109531926e+02
          2.616257675641e+02 0.000000000000e+00 -9.775762690607e+02
          2.656662952185e+02 0.000000000000e+00 -9.804529585548e+02
          2.648689735189e+02 0.000000000000e+00 -9.854983715900e+02
          2.697688118758e+02 0.000000000000e+00 -9.835017118465e+02
          2.599071461590e+02 0.000000000000e+00 -9.873229675359e+02
          2.569767564296e+02 0.000000000000e+00 -9.892884779762e+02
          2.540463667003e+02 0.000000000000e+00 -9.912539884165e+02
          2.519752876735e+02 0.000000000000e+00 -9.883461496192e+02
          2.511159769709e+02 0.000000000000e+00 -9.932194988567e+02
          2.461104596601e+02 0.000000000000e+00 -9.923001585080e+02
          2.469778677968e+02 0.000000000000e+00 -9.873808337510e+02
          2.499082575261e+02 0.000000000000e+00 -9.854153233107e+02
          2.478412273788e+02 0.000000000000e+00 -9.824844970023e+02
          2.428438075021e+02 0.000000000000e+00 -9.815191811341e+02
          2.399093692181e+02 0.000000000000e+00 -9.835076795826e+02
          2.365790115412e+02 0.000000000000e+00 -9.796013888431e+02
          2.374393018460e+02 0.000000000000e+00 -9.754138382594e+02
          2.332415360324e+02 0.000000000000e+00 -9.764268722769e+02
          2.416441854914e+02 0.000000000000e+00 -9.736690300686e+02
          2.475009160707e+02 0.000000000000e+00 -9.697609966992e+02
          2.483683242073e+02 0.000000000000e+00 -9.648416719422e+02
          2.433790017647e+02 0.000000000000e+00 -9.638303805546e+02
          2.400415262560e+02 0.000000000000e+00 -9.606558639884e+02
          2.404500743412e+02 0.000000000000e+00 -9.560390330356e+02
          2.362451906958e+02 0.000000000000e+00 -9.577838412264e+02
          2.451138180381e+02 0.000000000000e+00 -9.539917310406e+02
          2.509624511832e+02 0.000000000000e+00 -9.501296731906e+02
          2.518298593199e+02 0.000000000000e+00 -9.452103484336e+02
          2.468486343114e+02 0.000000000000e+00 -9.441530815265e+02
          2.430522987512e+02 0.000000000000e+00 -9.412810587645e+02
          2.435926180038e+02 0.000000000000e+00 -9.362856390642e+02
          2.389288743069e+02 0.000000000000e+00 -9.383329410592e+02
          2.485834505847e+02 0.000000000000e+00 -9.343144320125e+02
          2.544239862957e+02 0.000000000000e+00 -9.304983496820e+02
          2.552913944324e+02 0.000000000000e+00 -9.255790249250e+02
          2.503182668580e+02 0.000000000000e+00 -9.244757824985e+02
          2.461948424137e+02 0.000000000000e+00 -9.215276647932e+02
          2.470305981738e+02 0.000000000000e+00 -9.164540354511e+02
          2.420397655929e+02 0.000000000000e+00 -9.184252425028e+02
          2.520530831313e+02 0.000000000000e+00 -9.146371329845e+02
          2.551172385625e+02 0.000000000000e+00 -9.119130795379e+02
          2.559846466991e+02 0.000000000000e+00 -9.069937547809e+02
          2.537878994046e+02 0.000000000000e+00 -9.047984834705e+02
          2.496328225837e+02 0.000000000000e+00 -9.016960611800e+02
          2.505259600111e+02 0.000000000000e+00 -8.967026615649e+02
          2.455034750536e+02 0.000000000000e+00 -8.985195640315e+02
          2.555227156779e+02 0.000000000000e+00 -8.949598339564e+02
          2.583031095451e+02 0.000000000000e+00 -8.938450807087e+02
          2.591705176817e+02 0.000000000000e+00 -8.889257559517e+02
          2.572575319512e+02 0.000000000000e+00 -8.851211844424e+02
          2.531281844211e+02 0.000000000000e+00 -8.819446872938e+02
          2.538350543949e+02 0.000000000000e+00 -8.768716435580e+02
          2.488382987281e+02 0.000000000000e+00 -8.786144711665e+02
          2.589923482245e+02 0.000000000000e+00 -8.752825349284e+02
          2.639977203594e+02 0.000000000000e+00 -8.762029292061e+02
          2.648651284960e+02 0.000000000000e+00 -8.712836044491e+02
          2.607271644978e+02 0.000000000000e+00 -8.654438854144e+02
          2.564372788048e+02 0.000000000000e+00 -8.621136692870e+02
          2.570764646526e+02 0.000000000000e+00 -8.566889260358e+02
          2.519191708229e+02 0.000000000000e+00 -8.582780346655e+02
          2.624619807711e+02 0.000000000000e+00 -8.556052359003e+02
          2.675076949005e+02 0.000000000000e+00 -8.562968065099e+02
          2.683751030371e+02 0.000000000000e+00 -8.513774817529e+02
          2.641967970445e+02 0.000000000000e+00 -8.457665863863e+02
          2.596786890626e+02 0.000000000000e+00 -8.419309517648e+02
          2.607189793460e+02 0.000000000000e+00 -8.363358335748e+02
          2.553334632275e+02 0.000000000000e+00 -8.374195237103e+02
          2.659316133178e+02 0.000000000000e+00 -8.359279368723e+02
          2.710176694416e+02 0.000000000000e+00 -8.363906838137e+02
          2.718850775782e+02 0.000000000000e+00 -8.314713590567e+02
          2.676664295911e+02 0.000000000000e+00 -8.260892873583e+02
          2.633212037560e+02 0.000000000000e+00 -8.215778593038e+02
          2.645440410381e+02 0.000000000000e+00 -8.162506029413e+02
          2.593314070663e+02 0.000000000000e+00 -8.166584996439e+02
          2.654114491747e+02 0.000000000000e+00 -8.113312781843e+02
          2.614216524850e+02 0.000000000000e+00 -8.064119185244e+02
          2.662788573114e+02 0.000000000000e+00 -8.064119534273e+02
          2.671462654480e+02 0.000000000000e+00 -8.014926286703e+02
          2.687538700013e+02 0.000000000000e+00 -7.975402245422e+02
          2.638966651750e+02 0.000000000000e+00 -7.975401896392e+02
          2.728951897230e+02 0.000000000000e+00 -7.964354622689e+02
          2.780619298358e+02 0.000000000000e+00 -7.964405618740e+02
          2.789536492845e+02 0.000000000000e+00 -7.913833605697e+02
          2.746786286203e+02 0.000000000000e+00 -7.863210596604e+02
          2.714290283472e+02 0.000000000000e+00 -7.823686206293e+02
          2.722503716314e+02 0.000000000000e+00 -7.780989274105e+02
          2.681090519097e+02 0.000000000000e+00 -7.792036896837e+02
          2.764620675176e+02 0.000000000000e+00 -7.762066570518e+02
          2.823466300657e+02 0.000000000000e+00 -7.721407185586e+02
          2.832383495143e+02 0.000000000000e+00 -7.670835172543e+02
          2.782455064149e+02 0.000000000000e+00 -7.660922544433e+02
          2.749255299773e+02 0.000000000000e+00 -7.629273234977e+02
          2.751471747563e+02 0.000000000000e+00 -7.580938572705e+02
          2.709354788702e+02 0.000000000000e+00 -7.599861276292e+02
          2.800289453122e+02 0.000000000000e+00 -7.559778518347e+02
          2.858265593535e+02 0.000000000000e+00 -7.524049949445e+02
          2.867182788022e+02 0.000000000000e+00 -7.473477936402e+02
          2.818123842094e+02 0.000000000000e+00 -7.458634492262e+02
          2.778223331023e+02 0.000000000000e+00 -7.429222533577e+02
          2.776693944672e+02 0.000000000000e+00 -7.367487090771e+02
          2.727876239114e+02 0.000000000000e+00 -7.388647145129e+02
          2.835958231067e+02 0.000000000000e+00 -7.357490466176e+02
          2.893064886414e+02 0.000000000000e+00 -7.326692713304e+02
          2.901982080901e+02 0.000000000000e+00 -7.276120700261e+02
          2.853792620040e+02 0.000000000000e+00 -7.256346440091e+02
          2.803445528131e+02 0.000000000000e+00 -7.215771051643e+02
          2.823320699139e+02 0.000000000000e+00 -7.155202151904e+02
          2.764056412743e+02 0.000000000000e+00 -7.165198776499e+02
          2.832237893625e+02 0.000000000000e+00 -7.104630138862e+02
          2.792848778237e+02 0.000000000000e+00 -7.054057863718e+02
          2.841155088111e+02 0.000000000000e+00 -7.054058125819e+02
          2.850072282598e+02 0.000000000000e+00 -7.003486112776e+02
          2.866606558322e+02 0.000000000000e+00 -6.966489254848e+02
          2.818300248447e+02 0.000000000000e+00 -6.966488992747e+02
          2.906407388304e+02 0.000000000000e+00 -6.957952729949e+02
          2.961775073517e+02 0.000000000000e+00 -6.937016609137e+02
          2.969803869348e+02 0.000000000000e+00 -6.891482964209e+02
          2.922464979966e+02 0.000000000000e+00 -6.866885440093e+02
          2.890692945816e+02 0.000000000000e+00 -6.829888320064e+02
          2.899810643612e+02 0.000000000000e+00 -6.790789630029e+02
          2.860009813630e+02 0.000000000000e+00 -6.799326154928e+02
          2.938522571629e+02 0.000000000000e+00 -6.775818150238e+02
          2.993909170430e+02 0.000000000000e+00 -6.754774477340e+02
          3.001937966262e+02 0.000000000000e+00 -6.709240832413e+02
          2.954580163292e+02 0.000000000000e+00 -6.684750860382e+02
          2.923897031106e+02 0.000000000000e+00 -6.654188695246e+02
          2.929071555043e+02 0.000000000000e+00 -6.611499626968e+02
          2.890359627026e+02 0.000000000000e+00 -6.626471106759e+02
          2.970637754954e+02 0.000000000000e+00 -6.593683570526e+02
          3.026043267344e+02 0.000000000000e+00 -6.572532345544e+02
          3.034072063175e+02 0.000000000000e+00 -6.526998700616e+02
          2.986695346617e+02 0.000000000000e+00 -6.502616280670e+02
          2.953157942537e+02 0.000000000000e+00 -6.474898692184e+02
          2.959228235914e+02 0.000000000000e+00 -6.429192484782e+02
          2.917662036003e+02 0.000000000000e+00 -6.447008541223e+02
          3.002752938280e+02 0.000000000000e+00 -6.411548990814e+02
          3.058177364257e+02 0.000000000000e+00 -6.390290213748e+02
          3.066206160088e+02 0.000000000000e+00 -6.344756568820e+02
          3.018810529942e+02 0.000000000000e+00 -6.320481700959e+02
          2.983314623408e+02 0.000000000000e+00 -6.292591549998e+02
          2.991157324513e+02 0.000000000000e+00 -6.245924085471e+02
          2.947632622148e+02 0.000000000000e+00 -6.263567579438e+02
          3.034868121605e+02 0.000000000000e+00 -6.229414411103e+02
          3.090311461171e+02 0.000000000000e+00 -6.208048081951e+02
          3.098340257002e+02 0.000000000000e+00 -6.162514437023e+02
          3.050925713268e+02 0.000000000000e+00 -6.138347121247e+02
          3.015243712007e+02 0.000000000000e+00 -6.109323150687e+02
          3.024426889518e+02 0.000000000000e+00 -6.063307170159e+02
          2.980716092426e+02 0.000000000000e+00 -6.079816844527e+02
          3.066983304930e+02 0.000000000000e+00 -6.047279831391e+02
          3.122445558084e+02 0.000000000000e+00 -6.025805950155e+02
          3.130474353915e+02 0.000000000000e+00 -5.980272305227e+02
          3.083040896593e+02 0.000000000000e+00 -5.956212541535e+02
          3.048513277012e+02 0.000000000000e+00 -5.926706235375e+02
          3.057802392054e+02 0.000000000000e+00 -5.882285750929e+02
          3.015245976642e+02 0.000000000000e+00 -5.898313089696e+02
          3.099098488256e+02 0.000000000000e+00 -5.865145251679e+02
          3.154551865539e+02 0.000000000000e+00 -5.843593243749e+02
          3.162580661370e+02 0.000000000000e+00 -5.798059598821e+02
          3.115156079918e+02 0.000000000000e+00 -5.774077961824e+02
          3.170609457202e+02 0.000000000000e+00 -5.752525953893e+02
          3.081888779548e+02 0.000000000000e+00 -5.745684816145e+02
          3.089043143948e+02 0.000000000000e+00 -5.702293837056e+02
          3.047747047746e+02 0.000000000000e+00 -5.719434336305e+02
          3.131213671581e+02 0.000000000000e+00 -5.683010671968e+02
          3.178629377163e+02 0.000000000000e+00 -5.706914182271e+02
          3.226053958615e+02 0.000000000000e+00 -5.730895819268e+02
          3.281498460028e+02 0.000000000000e+00 -5.709265684643e+02
          3.289518379989e+02 0.000000000000e+00 -5.663653913021e+02
          3.336942961441e+02 0.000000000000e+00 -5.687635550018e+02
          3.297547175821e+02 0.000000000000e+00 -5.618120268093e+02
          3.352982801364e+02 0.000000000000e+00 -5.596412006774e+02
          3.408778647455e+02 0.000000000000e+00 -5.631002181302e+02
          3.389170830608e+02 0.000000000000e+00 -5.685478755949e+02
          3.452986596661e+02 0.000000000000e+00 -5.674457158855e+02
          3.381150910647e+02 0.000000000000e+00 -5.731090527571e+02
          3.425358859853e+02 0.000000000000e+00 -5.774545505125e+02
          3.373130990686e+02 0.000000000000e+00 -5.776702299194e+02
          3.365111070725e+02 0.000000000000e+00 -5.822314070816e+02
          3.352523252250e+02 0.000000000000e+00 -5.870096827340e+02
          3.404751121416e+02 0.000000000000e+00 -5.867940033271e+02
          3.344503332289e+02 0.000000000000e+00 -5.915708598962e+02
          3.384143382980e+02 0.000000000000e+00 -5.961334561418e+02
        </DataArray>
      </Points>
      <Cells>
        <DataArray type="Int64" Name="connectivity" format="ascii">
          4238 4237 3805 
          73 74 137 
          74 75 137 
          136 0 138 
          0 1 138 
          89 90 139 
          90 91 139 
          9 10 140 
          10 11 140 
          2739 3279 3280 
          3157 3158 3159 
          140 11 142 
          11 12 142 
          135 136 143 
          136 138 143 
          88 89 144 
          89 139 144 
          137 75 145 
          75 76 145 
          72 73 146 
          73 137 146 
          137 145 146 
          139 91 147 
          91 92 147 
          139 147 144 
          25 26 148 
          26 2739 2740 
          138 1 149 
          1 2 149 
          138 149 143 
          8 9 150 
          9 140 150 
          140 142 150 
          2717 3154 3156 
          3174 3175 3173 
          148 141 152 
          141 2717 2719 
          24 25 153 
          25 148 153 
          153 148 154 
          148 152 154 
          23 24 155 
          24 153 155 
          22 23 156 
          23 155 156 
          21 22 157 
          22 156 157 
          20 21 158 
          21 157 158 
          19 20 159 
          20 158 159 
          18 19 160 
          19 159 160 
          17 18 161 
          18 160 161 
          16 17 162 
          17 161 162 
          15 16 163 
          16 162 163 
          14 15 164 
          15 163 164 
          13 14 165 
          14 164 165 
          12 13 166 
          13 165 166 
          12 166 142 
          2715 3151 3153 
          3187 3188 3186 
          152 151 168 
          151 2715 2716 
          152 168 154 
          2700 3148 3150 
          3200 3201 3199 
          2698 3145 3147 
          3213 3214 3212 
          150 142 171 
          142 166 171 
          134 135 172 
          135 143 172 
          133 134 173 
          134 172 173 
          132 133 174 
          133 173 174 
          131 132 175 
          132 174 175 
          130 131 176 
          131 175 176 
          129 130 177 
          130 176 177 
          128 129 178 
          129 177 178 
          127 128 179 
          128 178 179 
          126 127 180 
          127 179 180 
          125 126 181 
          126 180 181 
          124 125 182 
          125 181 182 
          123 124 183 
          124 182 183 
          122 123 184 
          123 183 184 
          121 122 185 
          122 184 185 
          120 121 186 
          121 185 186 
          119 120 187 
          120 186 187 
          118 119 188 
          119 187 188 
          117 118 189 
          118 188 189 
          116 117 190 
          117 189 190 
          115 116 191 
          116 190 191 
          114 115 192 
          115 191 192 
          113 114 193 
          114 192 193 
          112 113 194 
          113 193 194 
          111 112 195 
          112 194 195 
          110 111 196 
          111 195 196 
          109 110 197 
          110 196 197 
          108 109 198 
          109 197 198 
          107 108 199 
          108 198 199 
          106 107 200 
          107 199 200 
          105 106 201 
          106 200 201 
          104 105 202 
          105 201 202 
          103 104 203 
          104 202 203 
          102 103 204 
          103 203 204 
          101 102 205 
          102 204 205 
          100 101 206 
          101 205 206 
          99 100 207 
          100 206 207 
          98 99 208 
          99 207 208 
          97 98 209 
          98 208 209 
          96 97 210 
          97 209 210 
          95 96 211 
          96 210 211 
          94 95 212 
          95 211 212 
          93 94 213 
          94 212 213 
          92 93 214 
          93 213 214 
          92 214 147 
          87 88 215 
          88 144 215 
          86 87 216 
          87 215 216 
          85 86 217 
          86 216 217 
          84 85 218 
          85 217 218 
          83 84 219 
          84 218 219 
          82 83 220 
          83 219 220 
          81 82 221 
          82 220 221 
          80 81 222 
          81 221 222 
          79 80 223 
          80 222 223 
          78 79 224 
          79 223 224 
          77 78 225 
          78 224 225 
          76 77 226 
          77 225 226 
          76 226 145 
          71 72 227 
          72 146 227 
          70 71 228 
          71 227 228 
          69 70 229 
          70 228 229 
          68 69 230 
          69 229 230 
          67 68 231 
          68 230 231 
          66 67 232 
          67 231 232 
          65 66 233 
          66 232 233 
          64 65 234 
          65 233 234 
          63 64 235 
          64 234 235 
          62 63 236 
          63 235 236 
          61 62 237 
          62 236 237 
          60 61 238 
          61 237 238 
          59 60 239 
          60 238 239 
          58 59 240 
          59 239 240 
          57 58 241 
          58 240 241 
          56 57 242 
          57 241 242 
          55 56 243 
          56 242 243 
          54 55 244 
          55 243 244 
          53 54 245 
          54 244 245 
          52 53 246 
          53 245 246 
          51 52 247 
          52 246 247 
          50 51 248 
          51 247 248 
          49 50 249 
          50 248 249 
          48 49 250 
          49 249 250 
          47 48 251 
          48 250 251 
          46 47 252 
          47 251 252 
          45 2659 2661 
          46 252 253 
          2660 4234 4236 
          4232 4231 4233 
          3102 3103 3104 
          42 4229 4228 
          4229 4230 4228 
          3105 3106 3107 
          41 3315 3314 
          3111 3112 3113 
          40 3292 3291 
          3114 3115 3116 
          39 3266 3265 
          3255 3256 3254 
          38 3118 3120 
          3248 3249 3247 
          37 3121 3123 
          3241 3242 3240 
          36 3124 3126 
          3234 3235 3233 
          35 3127 3129 
          3227 3228 3226 
          34 3130 3132 
          254 252 263 
          252 251 263 
          3315 3316 3314 
          254 263 264 
          3292 3293 3291 
          255 264 265 
          3266 3267 3265 
          256 265 266 
          263 251 267 
          251 250 267 
          267 250 268 
          250 249 268 
          268 249 269 
          249 248 269 
          3118 3119 3120 
          257 266 270 
          269 248 271 
          248 247 271 
          271 247 272 
          247 246 272 
          272 246 273 
          246 245 273 
          273 245 274 
          245 244 274 
          274 244 275 
          244 243 275 
          275 243 276 
          243 242 276 
          276 242 277 
          242 241 277 
          277 241 278 
          241 240 278 
          278 240 279 
          240 239 279 
          279 239 280 
          239 238 280 
          280 238 281 
          238 237 281 
          281 237 282 
          237 236 282 
          282 236 283 
          236 235 283 
          283 235 284 
          235 234 284 
          284 234 285 
          234 233 285 
          285 233 286 
          233 232 286 
          286 232 287 
          232 231 287 
          287 231 288 
          231 230 288 
          288 230 289 
          230 229 289 
          289 229 290 
          229 228 290 
          290 228 291 
          228 227 291 
          291 227 292 
          227 146 292 
          146 145 292 
          145 226 292 
          149 2 293 
          2 3 293 
          293 3 294 
          3 4 294 
          294 4 295 
          4 5 295 
          295 5 296 
          5 6 296 
          296 6 297 
          6 7 297 
          297 7 298 
          7 8 298 
          8 150 298 
          150 171 298 
          172 143 299 
          143 149 299 
          149 293 299 
          173 172 300 
          172 299 300 
          174 173 301 
          173 300 301 
          175 174 302 
          174 301 302 
          176 175 303 
          175 302 303 
          177 176 304 
          176 303 304 
          178 177 305 
          177 304 305 
          179 178 306 
          178 305 306 
          180 179 307 
          179 306 307 
          181 180 308 
          180 307 308 
          182 181 309 
          181 308 309 
          183 182 310 
          182 309 310 
          184 183 311 
          183 310 311 
          185 184 312 
          184 311 312 
          186 185 313 
          185 312 313 
          187 186 314 
          186 313 314 
          188 187 315 
          187 314 315 
          189 188 316 
          188 315 316 
          190 189 317 
          189 316 317 
          191 190 318 
          190 317 318 
          192 191 319 
          191 318 319 
          193 192 320 
          192 319 320 
          194 193 321 
          193 320 321 
          195 194 322 
          194 321 322 
          196 195 323 
          195 322 323 
          197 196 324 
          196 323 324 
          198 197 325 
          197 324 325 
          199 198 326 
          198 325 326 
          200 199 327 
          199 326 327 
          201 200 328 
          200 327 328 
          202 201 329 
          201 328 329 
          203 202 330 
          202 329 330 
          204 203 331 
          203 330 331 
          205 204 332 
          204 331 332 
          206 205 333 
          205 332 333 
          207 206 334 
          206 333 334 
          208 207 335 
          207 334 335 
          209 208 336 
          208 335 336 
          210 209 337 
          209 336 337 
          211 210 338 
          210 337 338 
          212 211 339 
          211 338 339 
          213 212 340 
          212 339 340 
          214 213 341 
          213 340 341 
          155 153 342 
          153 154 342 
          342 154 343 
          154 168 343 
          171 166 344 
          166 165 344 
          344 165 345 
          165 164 345 
          345 164 346 
          164 163 346 
          346 163 347 
          163 162 347 
          347 162 348 
          162 161 348 
          348 161 349 
          161 160 349 
          349 160 350 
          160 159 350 
          350 159 351 
          159 158 351 
          351 158 352 
          158 157 352 
          352 157 353 
          157 156 353 
          353 156 354 
          156 155 354 
          155 342 354 
          354 342 355 
          342 343 355 
          147 214 356 
          214 341 356 
          147 356 144 
          144 356 215 
          216 215 357 
          215 356 357 
          357 356 358 
          356 341 358 
          358 341 359 
          341 340 359 
          217 216 360 
          216 357 360 
          218 217 361 
          217 360 361 
          219 218 362 
          218 361 362 
          360 357 363 
          357 358 363 
          363 358 364 
          358 359 364 
          220 219 365 
          219 362 365 
          361 360 366 
          360 363 366 
          362 361 367 
          361 366 367 
          365 362 368 
          362 367 368 
          366 363 369 
          363 364 369 
          221 220 370 
          220 365 370 
          370 365 371 
          365 368 371 
          222 221 372 
          221 370 372 
          223 222 373 
          222 372 373 
          224 223 374 
          223 373 374 
          225 224 375 
          224 374 375 
          226 225 376 
          225 375 376 
          226 376 292 
          291 292 377 
          292 376 377 
          377 376 378 
          376 375 378 
          290 291 379 
          291 377 379 
          379 377 380 
          377 378 380 
          378 375 381 
          375 374 381 
          380 378 382 
          378 381 382 
          372 370 383 
          370 371 383 
          373 372 384 
          372 383 384 
          374 373 385 
          373 384 385 
          374 385 381 
          382 381 386 
          381 385 386 
          359 340 387 
          340 339 387 
          364 359 388 
          359 387 388 
          369 364 389 
          364 388 389 
          387 339 390 
          339 338 390 
          390 338 391 
          338 337 391 
          391 337 392 
          337 336 392 
          392 336 393 
          336 335 393 
          393 335 394 
          335 334 394 
          394 334 395 
          334 333 395 
          395 333 396 
          333 332 396 
          396 332 397 
          332 331 397 
          397 331 398 
          331 330 398 
          398 330 399 
          330 329 399 
          399 329 400 
          329 328 400 
          400 328 401 
          328 327 401 
          401 327 402 
          327 326 402 
          402 326 403 
          326 325 403 
          403 325 404 
          325 324 404 
          404 324 405 
          324 323 405 
          405 323 406 
          323 322 406 
          406 322 407 
          322 321 407 
          407 321 408 
          321 320 408 
          408 320 409 
          320 319 409 
          409 319 410 
          319 318 410 
          410 318 411 
          318 317 411 
          411 317 412 
          317 316 412 
          412 316 413 
          316 315 413 
          413 315 414 
          315 314 414 
          414 314 415 
          314 313 415 
          415 313 416 
          313 312 416 
          416 312 417 
          312 311 417 
          417 311 418 
          311 310 418 
          418 310 419 
          310 309 419 
          419 309 420 
          309 308 420 
          420 308 421 
          308 307 421 
          421 307 422 
          307 306 422 
          422 306 423 
          306 305 423 
          423 305 424 
          305 304 424 
          424 304 425 
          304 303 425 
          425 303 426 
          303 302 426 
          426 302 427 
          302 301 427 
          289 290 428 
          290 379 428 
          428 379 429 
          379 380 429 
          380 382 429 
          288 289 430 
          289 428 430 
          287 288 431 
          288 430 431 
          286 287 432 
          287 431 432 
          285 286 433 
          286 432 433 
          284 285 434 
          285 433 434 
          283 284 435 
          284 434 435 
          282 283 436 
          283 435 436 
          281 282 437 
          282 436 437 
          280 281 438 
          281 437 438 
          279 280 439 
          280 438 439 
          278 279 440 
          279 439 440 
          277 278 441 
          278 440 441 
          276 277 442 
          277 441 442 
          275 276 443 
          276 442 443 
          274 275 444 
          275 443 444 
          273 274 445 
          274 444 445 
          272 273 446 
          273 445 446 
          271 272 447 
          272 446 447 
          269 271 448 
          271 447 448 
          268 269 449 
          269 448 449 
          267 268 450 
          268 449 450 
          263 267 451 
          267 450 451 
          263 451 264 
          429 382 452 
          382 386 452 
          388 387 453 
          387 390 453 
          389 388 454 
          388 453 454 
          427 301 455 
          301 300 455 
          455 300 456 
          300 299 456 
          299 293 456 
          293 294 456 
          456 294 457 
          294 295 457 
          455 456 458 
          456 457 458 
          427 455 459 
          455 458 459 
          457 295 460 
          295 296 460 
          460 296 461 
          296 297 461 
          461 297 462 
          297 298 462 
          298 171 462 
          462 171 463 
          171 344 463 
          463 344 464 
          344 345 464 
          461 462 465 
          462 463 465 
          465 463 466 
          463 464 466 
          460 461 467 
          461 465 467 
          457 460 468 
          460 467 468 
          457 468 458 
          467 465 469 
          465 466 469 
          468 467 470 
          467 469 470 
          458 468 471 
          468 470 471 
          458 471 459 
          426 427 472 
          427 459 472 
          472 459 473 
          459 471 473 
          425 426 474 
          426 472 474 
          474 472 475 
          472 473 475 
          424 425 476 
          425 474 476 
          423 424 477 
          424 476 477 
          476 474 478 
          474 475 478 
          477 476 479 
          476 478 479 
          464 345 480 
          345 346 480 
          466 464 481 
          464 480 481 
          469 466 482 
          466 481 482 
          470 469 483 
          469 482 483 
          471 470 484 
          470 483 484 
          471 484 473 
          480 346 485 
          346 347 485 
          485 347 486 
          347 348 486 
          486 348 487 
          348 349 487 
          487 349 488 
          349 350 488 
          488 350 489 
          350 351 489 
          489 351 490 
          351 352 490 
          490 352 491 
          352 353 491 
          491 353 492 
          353 354 492 
          354 355 492 
          422 423 493 
          423 477 493 
          493 477 494 
          477 479 494 
          421 422 495 
          422 493 495 
          420 421 496 
          421 495 496 
          419 420 497 
          420 496 497 
          418 419 498 
          419 497 498 
          417 418 499 
          418 498 499 
          416 417 500 
          417 499 500 
          415 416 501 
          416 500 501 
          414 415 502 
          415 501 502 
          413 414 503 
          414 502 503 
          412 413 504 
          413 503 504 
          411 412 505 
          412 504 505 
          410 411 506 
          411 505 506 
          409 410 507 
          410 506 507 
          408 409 508 
          409 507 508 
          407 408 509 
          408 508 509 
          406 407 510 
          407 509 510 
          405 406 511 
          406 510 511 
          404 405 512 
          405 511 512 
          403 404 513 
          404 512 513 
          402 403 514 
          403 513 514 
          401 402 515 
          402 514 515 
          400 401 516 
          401 515 516 
          399 400 517 
          400 516 517 
          398 399 518 
          399 517 518 
          397 398 519 
          398 518 519 
          396 397 520 
          397 519 520 
          395 396 521 
          396 520 521 
          394 395 522 
          395 521 522 
          393 394 523 
          394 522 523 
          392 393 524 
          393 523 524 
          391 392 525 
          392 524 525 
          390 391 526 
          391 525 526 
          390 526 453 
          495 493 527 
          493 494 527 
          481 480 528 
          480 485 528 
          482 481 529 
          481 528 529 
          482 529 483 
          484 483 530 
          483 529 530 
          473 484 531 
          484 530 531 
          473 531 475 
          478 475 532 
          475 531 532 
          479 478 533 
          478 532 533 
          494 479 534 
          479 533 534 
          527 494 535 
          494 534 535 
          496 495 536 
          495 527 536 
          497 496 537 
          496 536 537 
          498 497 538 
          497 537 538 
          499 498 539 
          498 538 539 
          500 499 540 
          499 539 540 
          501 500 541 
          500 540 541 
          502 501 542 
          501 541 542 
          503 502 543 
          502 542 543 
          504 503 544 
          503 543 544 
          505 504 545 
          504 544 545 
          506 505 546 
          505 545 546 
          507 506 547 
          506 546 547 
          508 507 548 
          507 547 548 
          509 508 549 
          508 548 549 
          510 509 550 
          509 549 550 
          511 510 551 
          510 550 551 
          512 511 552 
          511 551 552 
          513 512 553 
          512 552 553 
          514 513 554 
          513 553 554 
          515 514 555 
          514 554 555 
          516 515 556 
          515 555 556 
          517 516 557 
          516 556 557 
          518 517 558 
          517 557 558 
          519 518 559 
          518 558 559 
          520 519 560 
          519 559 560 
          521 520 561 
          520 560 561 
          522 521 562 
          521 561 562 
          523 522 563 
          522 562 563 
          524 523 564 
          523 563 564 
          525 524 565 
          524 564 565 
          526 525 566 
          525 565 566 
          530 529 567 
          529 528 567 
          531 530 568 
          530 567 568 
          531 568 532 
          536 527 569 
          527 535 569 
          367 366 570 
          366 369 570 
          368 367 571 
          367 570 571 
          371 368 572 
          368 571 572 
          383 371 573 
          371 572 573 
          570 369 574 
          369 389 574 
          389 454 574 
          384 383 575 
          383 573 575 
          385 384 576 
          384 575 576 
          385 576 386 
          452 386 577 
          386 576 577 
          567 528 578 
          528 485 578 
          485 486 578 
          568 567 579 
          567 578 579 
          568 579 532 
          533 532 580 
          532 579 580 
          534 533 581 
          533 580 581 
          535 534 582 
          534 581 582 
          580 579 583 
          579 578 583 
          578 486 583 
          486 487 583 
          580 583 584 
          583 487 584 
          580 584 581 
          487 488 584 
          581 584 582 
          582 584 585 
          584 488 585 
          488 489 585 
          535 582 586 
          582 585 586 
          535 586 569 
          585 489 587 
          489 490 587 
          585 587 586 
          569 586 588 
          586 587 588 
          536 569 589 
          569 588 589 
          536 589 537 
          587 490 590 
          490 491 590 
          587 590 588 
          590 491 591 
          491 492 591 
          589 588 592 
          588 590 592 
          590 591 592 
          537 589 593 
          589 592 593 
          537 593 538 
          591 492 594 
          492 355 594 
          592 591 595 
          591 594 595 
          592 595 593 
          538 593 596 
          593 595 596 
          538 596 539 
          540 539 597 
          539 596 597 
          597 596 598 
          596 595 598 
          595 594 598 
          598 594 599 
          594 355 599 
          355 343 599 
          597 598 600 
          598 599 600 
          541 540 601 
          540 597 601 
          597 600 601 
          542 541 602 
          541 601 602 
          543 542 603 
          542 602 603 
          544 543 604 
          603 2683 2686 
          545 544 605 
          604 2680 2681 
          546 545 606 
          545 605 606 
          547 546 607 
          546 606 607 
          548 547 608 
          547 607 608 
          549 548 609 
          548 608 609 
          550 549 610 
          549 609 610 
          551 550 611 
          550 610 611 
          552 551 612 
          551 611 612 
          553 552 613 
          552 612 613 
          554 553 614 
          553 613 614 
          555 554 615 
          554 614 615 
          556 555 616 
          555 615 616 
          557 556 617 
          556 616 617 
          558 557 618 
          557 617 618 
          559 558 619 
          558 618 619 
          560 559 620 
          559 619 620 
          561 560 621 
          560 620 621 
          562 561 622 
          561 621 622 
          563 562 623 
          562 622 623 
          564 563 624 
          563 623 624 
          565 564 625 
          564 624 625 
          566 565 626 
          565 625 626 
          602 601 627 
          601 600 627 
          627 600 628 
          600 599 628 
          599 343 628 
          628 343 629 
          343 168 629 
          168 167 629 
          167 2700 2702 
          627 628 630 
          628 629 630 
          629 169 630 
          630 169 631 
          169 2698 2699 
          630 631 627 
          627 631 602 
          631 170 602 
          170 2682 2684 
          2682 3143 3144 
          2683 3140 3142 
          3222 3223 3221 
          2680 3138 3139 
          2678 3136 3137 
          33 3133 3135 
          605 2678 2679 
          3133 3134 3135 
          607 606 633 
          606 262 633 
          633 262 634 
          3130 3131 3132 
          634 261 635 
          3127 3128 3129 
          635 260 636 
          3124 3125 3126 
          636 259 637 
          3121 3122 3123 
          258 270 637 
          608 607 638 
          607 633 638 
          638 633 639 
          633 634 639 
          634 635 639 
          609 608 640 
          608 638 640 
          610 609 641 
          609 640 641 
          611 610 642 
          610 641 642 
          612 611 643 
          611 642 643 
          613 612 644 
          612 643 644 
          614 613 645 
          613 644 645 
          615 614 646 
          614 645 646 
          616 615 647 
          615 646 647 
          617 616 648 
          616 647 648 
          618 617 649 
          617 648 649 
          619 618 650 
          618 649 650 
          620 619 651 
          619 650 651 
          621 620 652 
          620 651 652 
          622 621 653 
          621 652 653 
          623 622 654 
          622 653 654 
          624 623 655 
          623 654 655 
          625 624 656 
          624 655 656 
          626 625 657 
          625 656 657 
          430 428 658 
          428 429 658 
          429 452 658 
          658 452 659 
          452 577 659 
          431 430 660 
          430 658 660 
          658 659 660 
          432 431 661 
          431 660 661 
          433 432 662 
          432 661 662 
          434 433 663 
          433 662 663 
          435 434 664 
          434 663 664 
          436 435 665 
          435 664 665 
          437 436 666 
          436 665 666 
          438 437 667 
          437 666 667 
          439 438 668 
          438 667 668 
          440 439 669 
          439 668 669 
          441 440 670 
          440 669 670 
          442 441 671 
          441 670 671 
          443 442 672 
          442 671 672 
          444 443 673 
          443 672 673 
          445 444 674 
          444 673 674 
          446 445 675 
          445 674 675 
          447 446 676 
          446 675 676 
          448 447 677 
          447 676 677 
          449 448 678 
          448 677 678 
          450 449 679 
          449 678 679 
          451 450 680 
          450 679 680 
          264 451 681 
          451 680 681 
          264 681 265 
          266 265 682 
          265 681 682 
          266 682 270 
          453 526 683 
          526 566 683 
          454 453 684 
          453 683 684 
          454 684 574 
          683 566 685 
          566 626 685 
          685 626 686 
          626 657 686 
          637 270 687 
          270 682 687 
          687 682 688 
          682 681 688 
          688 681 689 
          681 680 689 
          680 679 689 
          689 679 690 
          679 678 690 
          688 689 691 
          689 690 691 
          687 688 692 
          688 691 692 
          661 660 693 
          660 659 693 
          662 661 694 
          661 693 694 
          663 662 695 
          662 694 695 
          664 663 696 
          663 695 696 
          665 664 697 
          664 696 697 
          666 665 698 
          665 697 698 
          667 666 699 
          666 698 699 
          668 667 700 
          667 699 700 
          669 668 701 
          668 700 701 
          670 669 702 
          669 701 702 
          671 670 703 
          670 702 703 
          672 671 704 
          671 703 704 
          673 672 705 
          672 704 705 
          674 673 706 
          673 705 706 
          675 674 707 
          674 706 707 
          676 675 708 
          675 707 708 
          677 676 709 
          676 708 709 
          678 677 710 
          677 709 710 
          678 710 690 
          691 690 711 
          690 710 711 
          691 711 692 
          640 638 712 
          638 639 712 
          712 639 713 
          639 635 713 
          635 636 713 
          577 576 714 
          576 575 714 
          659 577 715 
          577 714 715 
          659 715 693 
          714 575 716 
          575 573 716 
          716 573 717 
          573 572 717 
          717 572 718 
          572 571 718 
          718 571 719 
          571 570 719 
          570 574 719 
          719 574 720 
          574 684 720 
          684 683 720 
          683 685 720 
          719 720 721 
          720 685 721 
          719 721 718 
          721 685 722 
          685 686 722 
          717 718 723 
          718 721 723 
          721 722 723 
          716 717 724 
          717 723 724 
          724 723 725 
          723 722 725 
          725 722 726 
          722 686 726 
          726 686 727 
          686 657 727 
          727 657 728 
          657 656 728 
          714 716 729 
          716 724 729 
          714 729 715 
          729 724 730 
          724 725 730 
          730 725 731 
          725 726 731 
          731 726 732 
          726 727 732 
          727 728 732 
          728 656 733 
          656 655 733 
          733 655 734 
          655 654 734 
          734 654 735 
          654 653 735 
          735 653 736 
          653 652 736 
          736 652 737 
          652 651 737 
          737 651 738 
          651 650 738 
          738 650 739 
          650 649 739 
          739 649 740 
          649 648 740 
          740 648 741 
          648 647 741 
          741 647 742 
          647 646 742 
          742 646 743 
          646 645 743 
          743 645 744 
          645 644 744 
          744 644 745 
          644 643 745 
          745 643 746 
          643 642 746 
          746 642 747 
          642 641 747 
          747 641 748 
          641 640 748 
          640 712 748 
          715 729 749 
          729 730 749 
          715 749 693 
          749 730 750 
          730 731 750 
          750 731 751 
          731 732 751 
          694 693 752 
          693 749 752 
          752 749 753 
          749 750 753 
          750 751 753 
          695 694 754 
          694 752 754 
          696 695 755 
          695 754 755 
          697 696 756 
          696 755 756 
          751 732 757 
          732 728 757 
          728 733 757 
          753 751 758 
          751 757 758 
          752 753 759 
          753 758 759 
          752 759 754 
          755 754 760 
          754 759 760 
          755 760 756 
          758 757 761 
          757 733 761 
          758 761 759 
          761 733 762 
          733 734 762 
          760 759 763 
          759 761 763 
          761 762 763 
          762 734 764 
          734 735 764 
          763 762 765 
          762 764 765 
          764 735 766 
          735 736 766 
          765 764 767 
          764 766 767 
          766 736 768 
          736 737 768 
          768 737 769 
          737 738 769 
          769 738 770 
          738 739 770 
          770 739 771 
          739 740 771 
          771 740 772 
          740 741 772 
          772 741 773 
          741 742 773 
          773 742 774 
          742 743 774 
          774 743 775 
          743 744 775 
          775 744 776 
          744 745 776 
          776 745 777 
          745 746 777 
          777 746 778 
          746 747 778 
          778 747 779 
          747 748 779 
          779 748 780 
          748 712 780 
          712 713 780 
          780 713 781 
          713 636 781 
          636 637 781 
          637 687 781 
          687 692 781 
          781 692 782 
          692 711 782 
          781 782 780 
          779 780 783 
          780 782 783 
          778 779 784 
          779 783 784 
          777 778 785 
          778 784 785 
          776 777 786 
          777 785 786 
          775 776 787 
          776 786 787 
          774 775 788 
          775 787 788 
          773 774 789 
          774 788 789 
          772 773 790 
          773 789 790 
          771 772 791 
          772 790 791 
          770 771 792 
          771 791 792 
          769 770 793 
          770 792 793 
          768 769 794 
          769 793 794 
          766 768 795 
          768 794 795 
          766 795 767 
          760 763 796 
          763 765 796 
          760 796 756 
          796 765 797 
          765 767 797 
          767 795 797 
          697 756 798 
          756 796 798 
          697 798 698 
          798 796 799 
          796 797 799 
          797 795 799 
          699 698 800 
          698 798 800 
          798 799 800 
          800 799 801 
          799 795 801 
          795 794 801 
          699 800 802 
          800 801 802 
          699 802 700 
          802 801 803 
          801 794 803 
          794 793 803 
          803 793 804 
          793 792 804 
          804 792 805 
          792 791 805 
          700 802 806 
          802 803 806 
          700 806 701 
          803 804 806 
          702 701 807 
          701 806 807 
          806 804 807 
          804 805 807 
          805 791 808 
          791 790 808 
          807 805 809 
          805 808 809 
          807 809 702 
          702 809 703 
          704 703 810 
          703 809 810 
          809 808 810 
          705 704 811 
          704 810 811 
          811 810 812 
          810 808 812 
          808 790 812 
          790 789 812 
          812 789 813 
          789 788 813 
          812 813 811 
          705 811 814 
          811 813 814 
          705 814 706 
          707 706 815 
          706 814 815 
          815 814 816 
          814 813 816 
          813 788 816 
          788 787 816 
          816 787 817 
          787 786 817 
          816 817 815 
          707 815 818 
          815 817 818 
          707 818 708 
          709 708 819 
          708 818 819 
          819 818 820 
          818 817 820 
          817 786 820 
          786 785 820 
          820 785 821 
          785 784 821 
          784 783 821 
          819 820 822 
          820 821 822 
          819 822 709 
          709 822 710 
          711 710 823 
          710 822 823 
          711 823 782 
          822 821 823 
          821 783 823 
          782 823 783 
          3282 3283 3281 
          11 10 859 
          10 824 859 
          832 833 860 
          833 834 860 
          2777 4167 4169 
          3354 3355 3356 
          12 11 862 
          11 859 862 
          860 834 863 
          834 835 863 
          3072 4174 4176 
          3351 3352 3353 
          831 832 865 
          832 860 865 
          860 863 865 
          859 824 866 
          824 825 866 
          859 866 862 
          846 847 867 
          847 2777 2779 
          867 861 868 
          861 3072 3074 
          2774 4181 4183 
          3348 3349 3350 
          868 864 870 
          864 2774 2776 
          3079 4188 4190 
          3345 3346 3347 
          2771 4195 4197 
          3342 3343 3344 
          3087 4202 4204 
          3339 3340 3341 
          2769 4209 4211 
          3336 3337 3338 
          2761 4217 4219 
          3333 3334 3335 
          2759 3326 3328 
          3323 3324 3325 
          2744 3304 3306 
          3301 3302 3303 
          858 3108 3110 
          3108 3109 3110 
          845 846 878 
          846 867 878 
          878 867 879 
          867 868 879 
          868 870 879 
          844 845 880 
          845 878 880 
          843 844 881 
          844 880 881 
          842 843 882 
          843 881 882 
          841 842 883 
          842 882 883 
          840 841 884 
          841 883 884 
          839 840 885 
          840 884 885 
          838 839 886 
          839 885 886 
          837 838 887 
          838 886 887 
          836 837 888 
          837 887 888 
          835 836 889 
          836 888 889 
          835 889 863 
          13 12 890 
          12 862 890 
          14 13 891 
          13 890 891 
          15 14 892 
          14 891 892 
          16 15 893 
          15 892 893 
          17 16 894 
          16 893 894 
          18 17 895 
          17 894 895 
          19 18 896 
          18 895 896 
          20 19 897 
          19 896 897 
          21 20 898 
          20 897 898 
          22 21 899 
          21 898 899 
          23 22 900 
          22 899 900 
          24 23 901 
          23 900 901 
          25 24 902 
          24 901 902 
          25 902 877 
          876 2744 2746 
          877 902 903 
          875 2759 2760 
          876 903 904 
          903 902 905 
          902 901 905 
          904 903 906 
          903 905 906 
          905 901 907 
          901 900 907 
          906 905 908 
          905 907 908 
          874 2761 2763 
          875 904 909 
          909 904 910 
          904 906 910 
          910 906 911 
          906 908 911 
          907 900 912 
          900 899 912 
          908 907 913 
          907 912 913 
          911 908 914 
          908 913 914 
          912 899 915 
          899 898 915 
          915 898 916 
          898 897 916 
          916 897 917 
          897 896 917 
          917 896 918 
          896 895 918 
          918 895 919 
          895 894 919 
          919 894 920 
          894 893 920 
          920 893 921 
          893 892 921 
          921 892 922 
          892 891 922 
          913 912 923 
          912 915 923 
          914 913 924 
          913 923 924 
          873 2769 2770 
          874 909 925 
          925 909 926 
          909 910 926 
          910 911 926 
          926 911 927 
          911 914 927 
          927 914 928 
          914 924 928 
          872 3087 3089 
          873 925 929 
          871 2771 2773 
          872 929 930 
          869 3079 3081 
          871 930 931 
          869 931 870 
          879 870 932 
          870 931 932 
          923 915 933 
          915 916 933 
          933 916 934 
          916 917 934 
          934 917 935 
          917 918 935 
          935 918 936 
          918 919 936 
          936 919 937 
          919 920 937 
          937 920 938 
          920 921 938 
          938 921 939 
          921 922 939 
          922 891 940 
          891 890 940 
          939 922 941 
          922 940 941 
          940 890 942 
          890 862 942 
          862 866 942 
          924 923 943 
          923 933 943 
          928 924 944 
          924 943 944 
          865 863 945 
          863 889 945 
          830 831 946 
          831 865 946 
          865 945 946 
          829 830 947 
          830 946 947 
          828 829 948 
          829 947 948 
          827 828 949 
          828 948 949 
          826 827 950 
          827 949 950 
          825 826 951 
          826 950 951 
          825 951 866 
          866 951 942 
          943 933 952 
          933 934 952 
          952 934 953 
          934 935 953 
          953 935 954 
          935 936 954 
          954 936 955 
          936 937 955 
          955 937 956 
          937 938 956 
          956 938 957 
          938 939 957 
          957 939 958 
          939 941 958 
          945 889 959 
          889 888 959 
          959 888 960 
          888 887 960 
          960 887 961 
          887 886 961 
          961 886 962 
          886 885 962 
          962 885 963 
          885 884 963 
          963 884 964 
          884 883 964 
          964 883 965 
          883 882 965 
          965 882 966 
          882 881 966 
          966 881 967 
          881 880 967 
          967 880 968 
          880 878 968 
          878 879 968 
          879 932 968 
          947 946 969 
          946 945 969 
          945 959 969 
          948 947 970 
          947 969 970 
          949 948 971 
          948 970 971 
          950 949 972 
          949 971 972 
          951 950 973 
          950 972 973 
          951 973 942 
          942 973 940 
          940 973 941 
          941 973 974 
          973 972 974 
          941 974 958 
          974 972 975 
          972 971 975 
          975 971 976 
          971 970 976 
          976 970 977 
          970 969 977 
          969 959 977 
          977 959 978 
          959 960 978 
          978 960 979 
          960 961 979 
          979 961 980 
          961 962 980 
          980 962 981 
          962 963 981 
          981 963 982 
          963 964 982 
          982 964 983 
          964 965 983 
          983 965 984 
          965 966 984 
          984 966 985 
          966 967 985 
          985 967 986 
          967 968 986 
          968 932 986 
          929 925 987 
          925 926 987 
          926 927 987 
          987 927 988 
          927 928 988 
          988 928 989 
          928 944 989 
          930 929 990 
          929 987 990 
          990 987 991 
          987 988 991 
          988 989 991 
          931 930 992 
          930 990 992 
          931 992 932 
          932 992 986 
          992 990 993 
          990 991 993 
          992 993 986 
          993 991 994 
          991 989 994 
          994 989 995 
          989 944 995 
          995 944 996 
          944 943 996 
          943 952 996 
          985 986 997 
          986 993 997 
          997 993 998 
          993 994 998 
          994 995 998 
          998 995 999 
          995 996 999 
          984 985 1000 
          985 997 1000 
          999 996 1001 
          996 952 1001 
          1001 952 1002 
          952 953 1002 
          983 984 1003 
          984 1000 1003 
          1002 953 1004 
          953 954 1004 
          982 983 1005 
          983 1003 1005 
          1004 954 1006 
          954 955 1006 
          1006 955 1007 
          955 956 1007 
          1007 956 1008 
          956 957 1008 
          1008 957 1009 
          957 958 1009 
          1009 958 1010 
          958 974 1010 
          974 975 1010 
          1010 975 1011 
          975 976 1011 
          1011 976 1012 
          976 977 1012 
          977 978 1012 
          1009 1010 1013 
          1010 1011 1013 
          1013 1011 1014 
          1011 1012 1014 
          1014 1012 1015 
          1012 978 1015 
          1015 978 1016 
          978 979 1016 
          979 980 1016 
          1008 1009 1017 
          1009 1013 1017 
          1007 1008 1018 
          1008 1017 1018 
          1006 1007 1019 
          1007 1018 1019 
          1017 1013 1020 
          1013 1014 1020 
          1014 1015 1020 
          1018 1017 1021 
          1017 1020 1021 
          1019 1018 1022 
          1018 1021 1022 
          1020 1015 1023 
          1015 1016 1023 
          1020 1023 1021 
          1022 1021 1024 
          1021 1023 1024 
          1023 1016 1025 
          1016 980 1025 
          1023 1025 1024 
          980 981 1025 
          1024 1025 1026 
          1025 981 1026 
          981 982 1026 
          982 1005 1026 
          1022 1024 1027 
          1024 1026 1027 
          1026 1005 1027 
          1019 1022 1028 
          1022 1027 1028 
          1028 1027 1029 
          1027 1005 1029 
          1029 1005 1030 
          1005 1003 1030 
          1030 1003 1031 
          1003 1000 1031 
          1031 1000 1032 
          1000 997 1032 
          997 998 1032 
          1032 998 1033 
          998 999 1033 
          999 1001 1033 
          1033 1001 1034 
          1001 1002 1034 
          1032 1033 1035 
          1033 1034 1035 
          1032 1035 1031 
          1031 1035 1030 
          1034 1002 1036 
          1002 1004 1036 
          1034 1036 1035 
          1035 1036 1030 
          1030 1036 1029 
          1029 1036 1037 
          1036 1004 1037 
          1004 1006 1037 
          1029 1037 1028 
          1028 1037 1019 
          1037 1006 1019 
          3510 3511 3512 
          3490 3491 3492 
          3495 3496 3497 
          3487 3488 3489 
          3477 3478 3479 
          3474 3475 3476 
          3464 3465 3466 
          3461 3462 3463 
          3448 3449 3450 
          3445 3446 3447 
          3553 3554 3552 
          3564 3563 3565 
          3579 3580 3562 
          3590 3589 3591 
          3602 3603 3588 
          3613 3612 3614 
          3625 3626 3611 
          3217 3218 3219 
          3208 3209 3210 
          3204 3205 3206 
          3195 3196 3197 
          3191 3192 3193 
          3182 3183 3184 
          3178 3179 3180 
          3169 3170 3171 
          3165 3166 3167 
          3161 3162 3163 
          3261 3262 3260 
          3272 3271 3273 
          3287 3288 3270 
          3298 3297 3299 
          3310 3311 3296 
          3320 3319 3321 
          3099 3100 3101 
          3096 3097 3098 
          4222 3812 4223 
          4213 3814 4214 
          3809 3817 3815 
          4206 3820 4207 
          3823 3824 3825 
          4199 3833 4200 
          3836 3837 3838 
          4192 3846 4193 
          3849 3850 3851 
          4185 3859 4186 
          3862 3863 3864 
          4178 3872 4179 
          3875 3876 3877 
          4171 3885 4172 
          3898 3899 3900 
          3892 3893 3894 
          3886 3887 3888 
          4158 3915 4159 
          3918 3919 3920 
          3636 3635 3637 
          3648 3649 3634 
          4151 3928 4152 
          3931 3932 3933 
          3671 3670 3672 
          3667 3666 3668 
          4144 3941 4145 
          3943 3944 3942 
          3948 3949 3950 
          4137 3963 4138 
          3976 3977 3978 
          3970 3971 3972 
          3964 3965 3966 
          4124 3993 4125 
          3996 3997 3998 
          4117 4006 4118 
          3754 4008 4007 
          4110 3751 4111 
          3713 3747 3748 
          4103 3746 4104 
          3725 3726 3723 
          3393 3394 3395 
          4061 4062 3685 
          3396 3397 3398 
          3730 3731 3732 
          3716 3742 3743 
          3735 3736 3737 
          4096 3741 4097 
          3719 3720 3721 
          4089 4027 4090 
          4030 4031 4032 
          4082 4040 4083 
          4043 4044 4045 
          4075 4053 4076 
          3694 4055 4054 
          4067 3691 4068 
          3958 3957 3959 
          1127 1128 1138 
          1128 1129 1138 
          1137 74 1139 
          74 73 1139 
          3094 3802 3804 
          3828 3829 3827 
          1139 73 1141 
          73 72 1141 
          1126 1127 1142 
          1127 1138 1142 
          1138 1129 1143 
          1129 1130 1143 
          1138 1143 1142 
          2929 3799 3801 
          3841 3842 3840 
          1136 1137 1145 
          1137 1139 1145 
          1139 1141 1145 
          46 45 1146 
          45 3094 3095 
          1146 1140 1147 
          1140 2929 2931 
          2933 3796 3798 
          3854 3855 3853 
          1147 1144 1149 
          1144 2933 2935 
          2936 3793 3795 
          3867 3868 3866 
          2940 3790 3792 
          3880 3881 3879 
          2943 3787 3789 
          3903 3904 3902 
          2947 3784 3786 
          3910 3911 3909 
          2950 3781 3783 
          3923 3924 3922 
          2954 3778 3780 
          3936 3937 3935 
          2957 3776 3777 
          3771 3772 3773 
          1085 3955 3954 
          3955 3956 3954 
          47 46 1157 
          46 1146 1157 
          1157 1146 1158 
          1146 1147 1158 
          1147 1149 1158 
          48 47 1159 
          47 1157 1159 
          49 48 1160 
          48 1159 1160 
          50 49 1161 
          49 1160 1161 
          51 50 1162 
          50 1161 1162 
          52 51 1163 
          51 1162 1163 
          53 52 1164 
          52 1163 1164 
          54 53 1165 
          53 1164 1165 
          55 54 1166 
          54 1165 1166 
          56 55 1167 
          55 1166 1167 
          57 56 1168 
          56 1167 1168 
          58 57 1169 
          57 1168 1169 
          59 58 1170 
          58 1169 1170 
          60 59 1171 
          59 1170 1171 
          61 60 1172 
          60 1171 1172 
          62 61 1173 
          61 1172 1173 
          63 62 1174 
          62 1173 1174 
          64 63 1175 
          63 1174 1175 
          65 64 1176 
          64 1175 1176 
          66 65 1177 
          65 1176 1177 
          67 66 1178 
          66 1177 1178 
          68 67 1179 
          67 1178 1179 
          69 68 1180 
          68 1179 1180 
          70 69 1181 
          69 1180 1181 
          71 70 1182 
          70 1181 1182 
          72 71 1183 
          71 1182 1183 
          72 1183 1141 
          1145 1141 1184 
          1141 1183 1184 
          1125 1126 1185 
          1126 1142 1185 
          1124 1125 1186 
          1125 1185 1186 
          1123 1124 1187 
          1124 1186 1187 
          1122 1123 1188 
          1123 1187 1188 
          1121 1122 1189 
          1122 1188 1189 
          1120 1121 1190 
          1121 1189 1190 
          1119 1120 1191 
          1120 1190 1191 
          1118 1119 1192 
          1119 1191 1192 
          1117 1118 1193 
          1118 1192 1193 
          1116 1117 1194 
          1117 1193 1194 
          1115 1116 1195 
          1116 1194 1195 
          1114 1115 1196 
          1115 1195 1196 
          1113 1114 1197 
          1114 1196 1197 
          1112 1113 1198 
          1113 1197 1198 
          1111 1112 1199 
          1112 1198 1199 
          1110 1111 1200 
          1111 1199 1200 
          1109 1110 1201 
          1110 1200 1201 
          1108 1109 1202 
          1109 1201 1202 
          1107 1108 1203 
          1108 1202 1203 
          1106 1107 1204 
          1107 1203 1204 
          1105 1106 1205 
          1106 1204 1205 
          1104 1105 1206 
          1105 1205 1206 
          1103 1104 1207 
          1104 1206 1207 
          1102 1103 1208 
          1103 1207 1208 
          1101 1102 1209 
          1102 1208 1209 
          1100 1101 1210 
          1101 1209 1210 
          1099 1100 1211 
          1100 1210 1211 
          1099 1211 1156 
          1155 2957 2959 
          1156 1211 1212 
          1154 2954 2956 
          1155 1212 1213 
          1212 1211 1214 
          1211 1210 1214 
          1213 1212 1215 
          1212 1214 1215 
          1214 1210 1216 
          1210 1209 1216 
          1153 2950 2952 
          1154 1213 1217 
          1217 1213 1218 
          1213 1215 1218 
          1215 1214 1219 
          1214 1216 1219 
          1218 1215 1220 
          1215 1219 1220 
          1216 1209 1221 
          1209 1208 1221 
          1219 1216 1222 
          1216 1221 1222 
          1221 1208 1223 
          1208 1207 1223 
          1222 1221 1224 
          1221 1223 1224 
          1223 1207 1225 
          1207 1206 1225 
          1225 1206 1226 
          1206 1205 1226 
          1226 1205 1227 
          1205 1204 1227 
          1227 1204 1228 
          1204 1203 1228 
          1228 1203 1229 
          1203 1202 1229 
          1229 1202 1230 
          1202 1201 1230 
          1230 1201 1231 
          1201 1200 1231 
          1231 1200 1232 
          1200 1199 1232 
          1232 1199 1233 
          1199 1198 1233 
          1233 1198 1234 
          1198 1197 1234 
          1234 1197 1235 
          1197 1196 1235 
          1235 1196 1236 
          1196 1195 1236 
          1236 1195 1237 
          1195 1194 1237 
          1237 1194 1238 
          1194 1193 1238 
          1238 1193 1239 
          1193 1192 1239 
          1239 1192 1240 
          1192 1191 1240 
          1240 1191 1241 
          1191 1190 1241 
          1241 1190 1242 
          1190 1189 1242 
          1242 1189 1243 
          1189 1188 1243 
          1243 1188 1244 
          1188 1187 1244 
          1244 1187 1245 
          1187 1186 1245 
          1224 1223 1246 
          1223 1225 1246 
          1246 1225 1247 
          1225 1226 1247 
          1247 1226 1248 
          1226 1227 1248 
          1248 1227 1249 
          1227 1228 1249 
          1249 1228 1250 
          1228 1229 1250 
          1250 1229 1251 
          1229 1230 1251 
          1251 1230 1252 
          1230 1231 1252 
          1252 1231 1253 
          1231 1232 1253 
          1253 1232 1254 
          1232 1233 1254 
          1254 1233 1255 
          1233 1234 1255 
          1255 1234 1256 
          1234 1235 1256 
          1256 1235 1257 
          1235 1236 1257 
          1257 1236 1258 
          1236 1237 1258 
          1258 1237 1259 
          1237 1238 1259 
          1259 1238 1260 
          1238 1239 1260 
          1260 1239 1261 
          1239 1240 1261 
          1261 1240 1262 
          1240 1241 1262 
          1262 1241 1263 
          1241 1242 1263 
          1263 1242 1264 
          1242 1243 1264 
          1264 1243 1265 
          1243 1244 1265 
          1265 1244 1266 
          1244 1245 1266 
          1220 1219 1267 
          1219 1222 1267 
          1152 2947 2949 
          1153 1217 1268 
          1268 1217 1269 
          1217 1218 1269 
          1218 1220 1269 
          1269 1220 1270 
          1220 1267 1270 
          1151 2943 2945 
          1152 1268 1271 
          1150 2940 2942 
          1151 1271 1272 
          1148 2936 2938 
          1150 1272 1273 
          1148 1273 1149 
          1158 1149 1274 
          1149 1273 1274 
          1245 1186 1275 
          1186 1185 1275 
          1266 1245 1276 
          1245 1275 1276 
          1267 1222 1277 
          1222 1224 1277 
          1270 1267 1278 
          1267 1277 1278 
          1277 1224 1279 
          1224 1246 1279 
          1279 1246 1280 
          1246 1247 1280 
          1280 1247 1281 
          1247 1248 1281 
          1281 1248 1282 
          1248 1249 1282 
          1282 1249 1283 
          1249 1250 1283 
          1283 1250 1284 
          1250 1251 1284 
          1284 1251 1285 
          1251 1252 1285 
          1285 1252 1286 
          1252 1253 1286 
          1286 1253 1287 
          1253 1254 1287 
          1287 1254 1288 
          1254 1255 1288 
          1288 1255 1289 
          1255 1256 1289 
          1289 1256 1290 
          1256 1257 1290 
          1290 1257 1291 
          1257 1258 1291 
          1291 1258 1292 
          1258 1259 1292 
          1292 1259 1293 
          1259 1260 1293 
          1293 1260 1294 
          1260 1261 1294 
          1294 1261 1295 
          1261 1262 1295 
          1295 1262 1296 
          1262 1263 1296 
          1296 1263 1297 
          1263 1264 1297 
          1297 1264 1298 
          1264 1265 1298 
          1298 1265 1299 
          1265 1266 1299 
          1299 1266 1300 
          1266 1276 1300 
          1275 1185 1301 
          1185 1142 1301 
          1142 1143 1301 
          1268 1269 1302 
          1269 1270 1302 
          1268 1302 1271 
          1302 1270 1303 
          1270 1278 1303 
          1271 1302 1304 
          1302 1303 1304 
          1271 1304 1272 
          1143 1130 1305 
          1130 1131 1305 
          1143 1305 1301 
          1305 1131 1306 
          1131 1132 1306 
          1306 1132 1307 
          1132 1133 1307 
          1307 1133 1308 
          1133 1134 1308 
          1308 1134 1309 
          1134 1135 1309 
          1309 1135 1310 
          1135 1136 1310 
          1136 1145 1310 
          1145 1184 1310 
          1184 1183 1311 
          1183 1182 1311 
          1311 1182 1312 
          1182 1181 1312 
          1312 1181 1313 
          1181 1180 1313 
          1313 1180 1314 
          1180 1179 1314 
          1314 1179 1315 
          1179 1178 1315 
          1315 1178 1316 
          1178 1177 1316 
          1316 1177 1317 
          1177 1176 1317 
          1317 1176 1318 
          1176 1175 1318 
          1318 1175 1319 
          1175 1174 1319 
          1319 1174 1320 
          1174 1173 1320 
          1320 1173 1321 
          1173 1172 1321 
          1321 1172 1322 
          1172 1171 1322 
          1322 1171 1323 
          1171 1170 1323 
          1323 1170 1324 
          1170 1169 1324 
          1324 1169 1325 
          1169 1168 1325 
          1325 1168 1326 
          1168 1167 1326 
          1326 1167 1327 
          1167 1166 1327 
          1327 1166 1328 
          1166 1165 1328 
          1328 1165 1329 
          1165 1164 1329 
          1329 1164 1330 
          1164 1163 1330 
          1330 1163 1331 
          1163 1162 1331 
          1331 1162 1332 
          1162 1161 1332 
          1332 1161 1333 
          1161 1160 1333 
          1333 1160 1334 
          1160 1159 1334 
          1334 1159 1335 
          1159 1157 1335 
          1157 1158 1335 
          1158 1274 1335 
          1301 1305 1336 
          1305 1306 1336 
          1301 1336 1275 
          1275 1336 1276 
          1300 1276 1337 
          1276 1336 1337 
          1337 1336 1338 
          1336 1306 1338 
          1306 1307 1338 
          1338 1307 1339 
          1307 1308 1339 
          1337 1338 1340 
          1338 1339 1340 
          1339 1308 1341 
          1308 1309 1341 
          1340 1339 1342 
          1339 1341 1342 
          1341 1309 1343 
          1309 1310 1343 
          1310 1184 1343 
          1184 1311 1343 
          1342 1341 1344 
          1341 1343 1344 
          1344 1343 1345 
          1343 1311 1345 
          1311 1312 1345 
          1345 1312 1346 
          1312 1313 1346 
          1346 1313 1347 
          1313 1314 1347 
          1347 1314 1348 
          1314 1315 1348 
          1348 1315 1349 
          1315 1316 1349 
          1349 1316 1350 
          1316 1317 1350 
          1350 1317 1351 
          1317 1318 1351 
          1351 1318 1352 
          1318 1319 1352 
          1352 1319 1353 
          1319 1320 1353 
          1353 1320 1354 
          1320 1321 1354 
          1354 1321 1355 
          1321 1322 1355 
          1355 1322 1356 
          1322 1323 1356 
          1356 1323 1357 
          1323 1324 1357 
          1357 1324 1358 
          1324 1325 1358 
          1358 1325 1359 
          1325 1326 1359 
          1359 1326 1360 
          1326 1327 1360 
          1360 1327 1361 
          1327 1328 1361 
          1361 1328 1362 
          1328 1329 1362 
          1362 1329 1363 
          1329 1330 1363 
          1363 1330 1364 
          1330 1331 1364 
          1364 1331 1365 
          1331 1332 1365 
          1365 1332 1366 
          1332 1333 1366 
          1366 1333 1367 
          1333 1334 1367 
          1367 1334 1368 
          1334 1335 1368 
          1335 1274 1368 
          1300 1337 1369 
          1337 1340 1369 
          1299 1300 1370 
          1300 1369 1370 
          1298 1299 1371 
          1299 1370 1371 
          1369 1340 1372 
          1340 1342 1372 
          1372 1342 1373 
          1342 1344 1373 
          1344 1345 1373 
          1373 1345 1374 
          1345 1346 1374 
          1373 1374 1372 
          1297 1298 1375 
          1298 1371 1375 
          1296 1297 1376 
          1297 1375 1376 
          1295 1296 1377 
          1296 1376 1377 
          1294 1295 1378 
          1295 1377 1378 
          1293 1294 1379 
          1294 1378 1379 
          1292 1293 1380 
          1293 1379 1380 
          1291 1292 1381 
          1292 1380 1381 
          1290 1291 1382 
          1291 1381 1382 
          1289 1290 1383 
          1290 1382 1383 
          1288 1289 1384 
          1289 1383 1384 
          1287 1288 1385 
          1288 1384 1385 
          1286 1287 1386 
          1287 1385 1386 
          1285 1286 1387 
          1286 1386 1387 
          1284 1285 1388 
          1285 1387 1388 
          1283 1284 1389 
          1284 1388 1389 
          1282 1283 1390 
          1283 1389 1390 
          1281 1282 1391 
          1282 1390 1391 
          1280 1281 1392 
          1281 1391 1392 
          1369 1372 1393 
          1372 1374 1393 
          1369 1393 1370 
          1371 1370 1394 
          1370 1393 1394 
          1375 1371 1395 
          1371 1394 1395 
          1376 1375 1396 
          1375 1395 1396 
          1393 1374 1397 
          1374 1346 1397 
          1346 1347 1397 
          1393 1397 1394 
          1397 1347 1398 
          1347 1348 1398 
          1394 1397 1399 
          1397 1398 1399 
          1394 1399 1395 
          1395 1399 1396 
          1398 1348 1400 
          1348 1349 1400 
          1399 1398 1401 
          1398 1400 1401 
          1399 1401 1396 
          1400 1349 1402 
          1349 1350 1402 
          1401 1400 1403 
          1400 1402 1403 
          1396 1401 1404 
          1401 1403 1404 
          1376 1396 1405 
          1396 1404 1405 
          1376 1405 1377 
          1402 1350 1406 
          1350 1351 1406 
          1403 1402 1407 
          1402 1406 1407 
          1403 1407 1404 
          1405 1404 1408 
          1404 1407 1408 
          1377 1405 1409 
          1405 1408 1409 
          1377 1409 1378 
          1408 1407 1410 
          1407 1406 1410 
          1409 1408 1411 
          1408 1410 1411 
          1378 1409 1412 
          1409 1411 1412 
          1379 1378 1413 
          1378 1412 1413 
          1380 1379 1414 
          1379 1413 1414 
          1406 1351 1415 
          1351 1352 1415 
          1406 1415 1410 
          1411 1410 1416 
          1410 1415 1416 
          1411 1416 1412 
          1412 1416 1413 
          1414 1413 1417 
          1413 1416 1417 
          1417 1416 1418 
          1416 1415 1418 
          1415 1352 1418 
          1352 1353 1418 
          1418 1353 1419 
          1353 1354 1419 
          1417 1418 1420 
          1418 1419 1420 
          1417 1420 1414 
          1419 1354 1421 
          1354 1355 1421 
          1421 1355 1422 
          1355 1356 1422 
          1422 1356 1423 
          1356 1357 1423 
          1380 1414 1424 
          1414 1420 1424 
          1380 1424 1381 
          1424 1420 1425 
          1420 1419 1425 
          1419 1421 1425 
          1381 1424 1426 
          1424 1425 1426 
          1381 1426 1382 
          1426 1425 1427 
          1425 1421 1427 
          1421 1422 1427 
          1382 1426 1428 
          1426 1427 1428 
          1382 1428 1383 
          1428 1427 1429 
          1427 1422 1429 
          1422 1423 1429 
          1423 1357 1430 
          1357 1358 1430 
          1429 1423 1431 
          1423 1430 1431 
          1428 1429 1432 
          1429 1431 1432 
          1428 1432 1383 
          1383 1432 1384 
          1384 1432 1433 
          1432 1431 1433 
          1384 1433 1385 
          1433 1431 1434 
          1431 1430 1434 
          1434 1430 1435 
          1430 1358 1435 
          1358 1359 1435 
          1385 1433 1436 
          1433 1434 1436 
          1385 1436 1386 
          1436 1434 1437 
          1434 1435 1437 
          1437 1435 1438 
          1435 1359 1438 
          1359 1360 1438 
          1387 1386 1439 
          1386 1436 1439 
          1439 1436 1440 
          1436 1437 1440 
          1437 1438 1440 
          1388 1387 1441 
          1387 1439 1441 
          1440 1438 1442 
          1438 1360 1442 
          1360 1361 1442 
          1439 1440 1443 
          1440 1442 1443 
          1439 1443 1441 
          1389 1388 1444 
          1388 1441 1444 
          1443 1442 1445 
          1442 1361 1445 
          1361 1362 1445 
          1441 1443 1446 
          1443 1445 1446 
          1441 1446 1444 
          1390 1389 1447 
          1389 1444 1447 
          1391 1390 1448 
          1390 1447 1448 
          1446 1445 1449 
          1445 1362 1449 
          1362 1363 1449 
          1444 1446 1450 
          1446 1449 1450 
          1444 1450 1447 
          1392 1391 1451 
          1391 1448 1451 
          1449 1363 1452 
          1363 1364 1452 
          1449 1452 1450 
          1447 1450 1453 
          1450 1452 1453 
          1447 1453 1448 
          1452 1364 1454 
          1364 1365 1454 
          1453 1452 1455 
          1452 1454 1455 
          1453 1455 1448 
          1448 1455 1451 
          1454 1365 1456 
          1365 1366 1456 
          1455 1454 1457 
          1454 1456 1457 
          1455 1457 1451 
          1456 1366 1458 
          1366 1367 1458 
          1457 1456 1459 
          1456 1458 1459 
          1451 1457 1460 
          1457 1459 1460 
          1451 1460 1392 
          1458 1367 1461 
          1367 1368 1461 
          1459 1458 1462 
          1458 1461 1462 
          1460 1459 1463 
          1459 1462 1463 
          1392 1460 1464 
          1460 1463 1464 
          1280 1392 1465 
          1392 1464 1465 
          1280 1465 1279 
          1461 1368 1466 
          1368 1274 1466 
          1466 1274 1467 
          1274 1273 1467 
          1273 1272 1467 
          1272 1304 1467 
          1466 1467 1468 
          1467 1304 1468 
          1468 1304 1469 
          1304 1303 1469 
          1303 1278 1469 
          1461 1466 1470 
          1466 1468 1470 
          1461 1470 1462 
          1470 1468 1471 
          1468 1469 1471 
          1462 1470 1472 
          1470 1471 1472 
          1462 1472 1463 
          1463 1472 1464 
          1465 1464 1473 
          1464 1472 1473 
          1465 1473 1279 
          1472 1471 1473 
          1277 1279 1474 
          1279 1473 1474 
          1473 1471 1474 
          1277 1474 1278 
          1278 1474 1469 
          1471 1469 1474 
          4165 4164 4166 
          834 833 1493 
          833 1475 1493 
          1478 1479 1494 
          1479 1480 1494 
          3050 4133 4135 
          3366 3367 3368 
          835 834 1496 
          834 1493 1496 
          1494 1480 1497 
          1480 1481 1497 
          1491 1492 1498 
          1492 3050 3052 
          1477 1478 1499 
          1478 1494 1499 
          1494 1497 1499 
          1493 1475 1500 
          1475 1476 1500 
          1493 1500 1496 
          2783 4140 4142 
          3363 3364 3365 
          1498 1495 1502 
          1495 2783 2785 
          1490 1491 1503 
          1491 1498 1503 
          1503 1498 1504 
          1498 1502 1504 
          1489 1490 1505 
          1490 1503 1505 
          1488 1489 1506 
          1489 1505 1506 
          1487 1488 1507 
          1488 1506 1507 
          1486 1487 1508 
          1487 1507 1508 
          1485 1486 1509 
          1486 1508 1509 
          1484 1485 1510 
          1485 1509 1510 
          1483 1484 1511 
          1484 1510 1511 
          1482 1483 1512 
          1483 1511 1512 
          1481 1482 1513 
          1482 1512 1513 
          1481 1513 1497 
          3058 4147 4149 
          3360 3361 3362 
          1502 1501 1515 
          1501 3058 3060 
          1502 1515 1504 
          2780 4154 4156 
          3357 3358 3359 
          1038 4162 4161 
          4162 4163 4161 
          1516 846 1517 
          846 845 1517 
          1514 2780 2782 
          1516 1517 1518 
          1514 1518 1515 
          1517 845 1519 
          845 844 1519 
          1519 844 1520 
          844 843 1520 
          1520 843 1521 
          843 842 1521 
          1521 842 1522 
          842 841 1522 
          1522 841 1523 
          841 840 1523 
          1523 840 1524 
          840 839 1524 
          1524 839 1525 
          839 838 1525 
          1525 838 1526 
          838 837 1526 
          1526 837 1527 
          837 836 1527 
          1527 836 1528 
          836 835 1528 
          835 1496 1528 
          1528 1496 1529 
          1496 1500 1529 
          1499 1497 1530 
          1497 1513 1530 
          1476 1477 1531 
          1477 1499 1531 
          1476 1531 1500 
          1499 1530 1531 
          1500 1531 1529 
          1531 1530 1529 
          1505 1503 1532 
          1503 1504 1532 
          1532 1504 1533 
          1504 1515 1533 
          1515 1518 1533 
          1533 1518 1534 
          1518 1517 1534 
          1517 1519 1534 
          1534 1519 1535 
          1519 1520 1535 
          1535 1520 1536 
          1520 1521 1536 
          1533 1534 1537 
          1534 1535 1537 
          1533 1537 1532 
          1537 1535 1538 
          1535 1536 1538 
          1532 1537 1539 
          1537 1538 1539 
          1532 1539 1505 
          1505 1539 1506 
          1536 1521 1540 
          1521 1522 1540 
          1538 1536 1541 
          1536 1540 1541 
          1539 1538 1542 
          1538 1541 1542 
          1506 1539 1543 
          1539 1542 1543 
          1506 1543 1507 
          1540 1522 1544 
          1522 1523 1544 
          1541 1540 1545 
          1540 1544 1545 
          1542 1541 1546 
          1541 1545 1546 
          1542 1546 1543 
          1544 1523 1547 
          1523 1524 1547 
          1547 1524 1548 
          1524 1525 1548 
          1548 1525 1549 
          1525 1526 1549 
          1549 1526 1550 
          1526 1527 1550 
          1550 1527 1551 
          1527 1528 1551 
          1528 1529 1551 
          1551 1529 1552 
          1529 1530 1552 
          1552 1530 1553 
          1530 1513 1553 
          1513 1512 1553 
          1550 1551 1554 
          1551 1552 1554 
          1554 1552 1555 
          1552 1553 1555 
          1555 1553 1556 
          1553 1512 1556 
          1512 1511 1556 
          1549 1550 1557 
          1550 1554 1557 
          1557 1554 1558 
          1554 1555 1558 
          1558 1555 1559 
          1555 1556 1559 
          1559 1556 1560 
          1556 1511 1560 
          1560 1511 1561 
          1511 1510 1561 
          1548 1549 1562 
          1549 1557 1562 
          1562 1557 1563 
          1557 1558 1563 
          1558 1559 1563 
          1559 1560 1563 
          1560 1561 1563 
          1562 1563 1564 
          1563 1561 1564 
          1564 1561 1565 
          1561 1510 1565 
          1510 1509 1565 
          1547 1548 1566 
          1548 1562 1566 
          1562 1564 1566 
          1566 1564 1567 
          1564 1565 1567 
          1565 1509 1567 
          1567 1509 1568 
          1509 1508 1568 
          1566 1567 1569 
          1567 1568 1569 
          1547 1566 1570 
          1566 1569 1570 
          1547 1570 1544 
          1545 1544 1571 
          1544 1570 1571 
          1571 1570 1572 
          1570 1569 1572 
          1569 1568 1572 
          1572 1568 1573 
          1568 1508 1573 
          1508 1507 1573 
          1507 1543 1573 
          1573 1543 1574 
          1543 1546 1574 
          1546 1545 1574 
          1545 1571 1574 
          1573 1574 1572 
          1574 1571 1572 
          4131 4130 4132 
          1583 1584 1596 
          1584 1585 1596 
          1480 1479 1597 
          1479 1575 1597 
          2798 3659 3662 
          3399 3400 3401 
          1481 1480 1599 
          1480 1597 1599 
          1582 1583 1600 
          1583 1596 1600 
          1596 1585 1601 
          1585 1586 1601 
          1596 1601 1600 
          1597 1575 1602 
          1575 1576 1602 
          1597 1602 1599 
          1594 1595 1603 
          1595 2798 2800 
          3019 4071 4073 
          3390 3391 3392 
          1603 1598 1605 
          1598 3019 3021 
          1593 1594 1606 
          1594 1603 1606 
          1606 1603 1607 
          1603 1605 1607 
          1592 1593 1608 
          1593 1606 1608 
          1591 1592 1609 
          1592 1608 1609 
          1590 1591 1610 
          1591 1609 1610 
          1589 1590 1611 
          1590 1610 1611 
          1588 1589 1612 
          1589 1611 1612 
          1587 1588 1613 
          1588 1612 1613 
          1586 1587 1614 
          1587 1613 1614 
          1586 1614 1601 
          2795 4078 4080 
          3387 3388 3389 
          1605 1604 1616 
          1604 2795 2797 
          1605 1616 1607 
          3026 4085 4087 
          3384 3385 3386 
          2792 4092 4094 
          3381 3382 3383 
          3033 4099 4101 
          3378 3379 3380 
          2789 4106 4108 
          3375 3376 3377 
          3040 4113 4115 
          3372 3373 3374 
          2786 4120 4122 
          3369 3370 3371 
          1043 4128 4127 
          4128 4129 4127 
          1622 1491 1623 
          1491 1490 1623 
          1621 2786 2788 
          1623 1490 1624 
          1490 1489 1624 
          1624 1489 1625 
          1489 1488 1625 
          1625 1488 1626 
          1488 1487 1626 
          1626 1487 1627 
          1487 1486 1627 
          1627 1486 1628 
          1486 1485 1628 
          1628 1485 1629 
          1485 1484 1629 
          1629 1484 1630 
          1484 1483 1630 
          1630 1483 1631 
          1483 1482 1631 
          1631 1482 1632 
          1482 1481 1632 
          1481 1599 1632 
          1620 3040 3042 
          1621 1623 1633 
          1633 1623 1634 
          1623 1624 1634 
          1634 1624 1635 
          1624 1625 1635 
          1635 1625 1636 
          1625 1626 1636 
          1619 2789 2791 
          1620 1633 1637 
          1618 3033 3035 
          1619 1637 1638 
          1617 2792 2794 
          1618 1638 1639 
          1636 1626 1640 
          1626 1627 1640 
          1615 3026 3028 
          1617 1639 1641 
          1615 1641 1616 
          1581 1582 1642 
          1582 1600 1642 
          1580 1581 1643 
          1581 1642 1643 
          1579 1580 1644 
          1580 1643 1644 
          1578 1579 1645 
          1579 1644 1645 
          1577 1578 1646 
          1578 1645 1646 
          1576 1577 1647 
          1577 1646 1647 
          1576 1647 1602 
          1632 1599 1648 
          1599 1602 1648 
          1602 1647 1648 
          1608 1606 1649 
          1606 1607 1649 
          1649 1607 1650 
          1607 1616 1650 
          1616 1641 1650 
          1640 1627 1651 
          1627 1628 1651 
          1651 1628 1652 
          1628 1629 1652 
          1652 1629 1653 
          1629 1630 1653 
          1653 1630 1654 
          1630 1631 1654 
          1654 1631 1655 
          1631 1632 1655 
          1632 1648 1655 
          1600 1601 1656 
          1601 1614 1656 
          1600 1656 1642 
          1643 1642 1657 
          1642 1656 1657 
          1644 1643 1658 
          1643 1657 1658 
          1645 1644 1659 
          1644 1658 1659 
          1646 1645 1660 
          1645 1659 1660 
          1647 1646 1661 
          1646 1660 1661 
          1647 1661 1648 
          1655 1648 1662 
          1648 1661 1662 
          1654 1655 1663 
          1655 1662 1663 
          1662 1661 1664 
          1661 1660 1664 
          1663 1662 1665 
          1662 1664 1665 
          1664 1660 1666 
          1660 1659 1666 
          1665 1664 1667 
          1664 1666 1667 
          1653 1654 1668 
          1654 1663 1668 
          1668 1663 1669 
          1663 1665 1669 
          1669 1665 1670 
          1665 1667 1670 
          1666 1659 1671 
          1659 1658 1671 
          1667 1666 1672 
          1666 1671 1672 
          1670 1667 1673 
          1667 1672 1673 
          1652 1653 1674 
          1653 1668 1674 
          1674 1668 1675 
          1668 1669 1675 
          1675 1669 1676 
          1669 1670 1676 
          1670 1673 1676 
          1671 1658 1677 
          1658 1657 1677 
          1672 1671 1678 
          1671 1677 1678 
          1673 1672 1679 
          1672 1678 1679 
          1677 1657 1680 
          1657 1656 1680 
          1656 1614 1680 
          1614 1613 1680 
          1680 1613 1681 
          1613 1612 1681 
          1681 1612 1682 
          1612 1611 1682 
          1682 1611 1683 
          1611 1610 1683 
          1677 1680 1684 
          1680 1681 1684 
          1677 1684 1678 
          1679 1678 1685 
          1678 1684 1685 
          1683 1610 1686 
          1610 1609 1686 
          1686 1609 1687 
          1609 1608 1687 
          1608 1649 1687 
          1684 1681 1688 
          1681 1682 1688 
          1684 1688 1685 
          1688 1682 1689 
          1682 1683 1689 
          1689 1683 1690 
          1683 1686 1690 
          1690 1686 1691 
          1686 1687 1691 
          1651 1652 1692 
          1652 1674 1692 
          1676 1673 1693 
          1673 1679 1693 
          1675 1676 1694 
          1676 1693 1694 
          1674 1675 1695 
          1675 1694 1695 
          1674 1695 1692 
          1693 1679 1696 
          1679 1685 1696 
          1696 1685 1697 
          1685 1688 1697 
          1688 1689 1697 
          1697 1689 1698 
          1689 1690 1698 
          1690 1691 1698 
          1694 1693 1699 
          1693 1696 1699 
          1695 1694 1700 
          1694 1699 1700 
          1692 1695 1701 
          1695 1700 1701 
          1699 1696 1702 
          1696 1697 1702 
          1702 1697 1703 
          1697 1698 1703 
          1700 1699 1704 
          1699 1702 1704 
          1700 1704 1701 
          1704 1702 1705 
          1702 1703 1705 
          1640 1651 1706 
          1651 1692 1706 
          1706 1692 1707 
          1692 1701 1707 
          1707 1701 1708 
          1701 1704 1708 
          1704 1705 1708 
          1636 1640 1709 
          1640 1706 1709 
          1635 1636 1710 
          1636 1709 1710 
          1635 1710 1634 
          1687 1649 1711 
          1649 1650 1711 
          1687 1711 1691 
          1711 1650 1712 
          1650 1641 1712 
          1641 1639 1712 
          1712 1639 1713 
          1639 1638 1713 
          1713 1638 1714 
          1638 1637 1714 
          1714 1637 1715 
          1637 1633 1715 
          1633 1634 1715 
          1715 1634 1716 
          1634 1710 1716 
          1710 1709 1716 
          1714 1715 1717 
          1715 1716 1717 
          1714 1717 1713 
          1698 1691 1718 
          1691 1711 1718 
          1698 1718 1703 
          1711 1712 1718 
          1705 1703 1719 
          1703 1718 1719 
          1708 1705 1720 
          1705 1719 1720 
          1718 1712 1721 
          1712 1713 1721 
          1718 1721 1719 
          1719 1721 1720 
          1713 1717 1721 
          1721 1717 1722 
          1717 1716 1722 
          1716 1709 1722 
          1709 1706 1722 
          1721 1722 1720 
          1706 1707 1722 
          1722 1707 1720 
          1720 1707 1708 
          3657 3656 3658 
          1731 1732 1742 
          1732 1733 1742 
          1585 1584 1743 
          1584 1723 1743 
          2820 3515 3517 
          3519 3520 3518 
          1586 1585 1745 
          1585 1743 1745 
          2823 3433 3435 
          3526 3527 3525 
          1730 1731 1747 
          1731 1742 1747 
          1742 1733 1748 
          1733 1734 1748 
          1742 1748 1747 
          1743 1723 1749 
          1723 1724 1749 
          1743 1749 1745 
          1740 1741 1750 
          1741 2820 2822 
          1750 1744 1751 
          1744 2823 2825 
          2814 3430 3432 
          3533 3534 3532 
          1751 1746 1753 
          1746 2814 2816 
          2841 3427 3429 
          3540 3541 3539 
          2811 3424 3426 
          3547 3548 3546 
          2858 3422 3423 
          3417 3418 3419 
          2808 3557 3559 
          3414 3415 3416 
          2875 3583 3585 
          3408 3409 3410 
          2805 3606 3608 
          3405 3406 3407 
          2892 3629 3631 
          3402 3403 3404 
          1053 3653 3652 
          3653 3654 3652 
          1739 1740 1761 
          1740 1750 1761 
          1761 1750 1762 
          1750 1751 1762 
          1751 1753 1762 
          1738 1739 1763 
          1739 1761 1763 
          1737 1738 1764 
          1738 1763 1764 
          1736 1737 1765 
          1737 1764 1765 
          1735 1736 1766 
          1736 1765 1766 
          1734 1735 1767 
          1735 1766 1767 
          1734 1767 1748 
          1587 1586 1768 
          1586 1745 1768 
          1588 1587 1769 
          1587 1768 1769 
          1589 1588 1770 
          1588 1769 1770 
          1590 1589 1771 
          1589 1770 1771 
          1591 1590 1772 
          1590 1771 1772 
          1592 1591 1773 
          1591 1772 1773 
          1593 1592 1774 
          1592 1773 1774 
          1594 1593 1775 
          1593 1774 1775 
          1594 1775 1760 
          1759 2892 2894 
          1760 1775 1776 
          1758 2805 2807 
          1759 1776 1777 
          1776 1775 1778 
          1775 1774 1778 
          1777 1776 1779 
          1776 1778 1779 
          1778 1774 1780 
          1774 1773 1780 
          1757 2875 2877 
          1758 1777 1781 
          1777 1779 1781 
          1779 1778 1782 
          1778 1780 1782 
          1780 1773 1783 
          1773 1772 1783 
          1782 1780 1784 
          1780 1783 1784 
          1783 1772 1785 
          1772 1771 1785 
          1785 1771 1786 
          1771 1770 1786 
          1784 1783 1787 
          1783 1785 1787 
          1786 1770 1788 
          1770 1769 1788 
          1787 1785 1789 
          1785 1786 1789 
          1789 1786 1790 
          1786 1788 1790 
          1756 2808 2810 
          1757 1781 1791 
          1755 2858 2860 
          1756 1791 1792 
          1754 2811 2813 
          1755 1792 1793 
          1752 2841 2843 
          1754 1793 1794 
          1752 1794 1753 
          1762 1753 1795 
          1753 1794 1795 
          1781 1779 1796 
          1779 1782 1796 
          1781 1796 1791 
          1796 1782 1797 
          1782 1784 1797 
          1797 1784 1798 
          1784 1787 1798 
          1798 1787 1799 
          1787 1789 1799 
          1799 1789 1800 
          1789 1790 1800 
          1788 1769 1801 
          1769 1768 1801 
          1790 1788 1802 
          1788 1801 1802 
          1800 1790 1803 
          1790 1802 1803 
          1801 1768 1804 
          1768 1745 1804 
          1745 1749 1804 
          1729 1730 1805 
          1730 1747 1805 
          1728 1729 1806 
          1729 1805 1806 
          1727 1728 1807 
          1728 1806 1807 
          1726 1727 1808 
          1727 1807 1808 
          1725 1726 1809 
          1726 1808 1809 
          1724 1725 1810 
          1725 1809 1810 
          1724 1810 1749 
          1749 1810 1804 
          1802 1801 1811 
          1801 1804 1811 
          1804 1810 1811 
          1810 1809 1811 
          1811 1809 1812 
          1809 1808 1812 
          1802 1811 1813 
          1811 1812 1813 
          1802 1813 1803 
          1812 1808 1814 
          1808 1807 1814 
          1814 1807 1815 
          1807 1806 1815 
          1815 1806 1816 
          1806 1805 1816 
          1816 1805 1817 
          1805 1747 1817 
          1747 1748 1817 
          1748 1767 1817 
          1792 1791 1818 
          1791 1796 1818 
          1796 1797 1818 
          1818 1797 1819 
          1797 1798 1819 
          1819 1798 1820 
          1798 1799 1820 
          1820 1799 1821 
          1799 1800 1821 
          1793 1792 1822 
          1792 1818 1822 
          1822 1818 1823 
          1818 1819 1823 
          1794 1793 1824 
          1793 1822 1824 
          1794 1824 1795 
          1824 1822 1825 
          1822 1823 1825 
          1823 1819 1826 
          1819 1820 1826 
          1826 1820 1827 
          1820 1821 1827 
          1825 1823 1828 
          1823 1826 1828 
          1828 1826 1829 
          1826 1827 1829 
          1795 1824 1830 
          1824 1825 1830 
          1830 1825 1831 
          1825 1828 1831 
          1831 1828 1832 
          1828 1829 1832 
          1821 1800 1833 
          1800 1803 1833 
          1827 1821 1834 
          1821 1833 1834 
          1827 1834 1829 
          1833 1803 1835 
          1803 1813 1835 
          1835 1813 1836 
          1813 1812 1836 
          1812 1814 1836 
          1836 1814 1837 
          1814 1815 1837 
          1837 1815 1838 
          1815 1816 1838 
          1838 1816 1839 
          1816 1817 1839 
          1817 1767 1839 
          1767 1766 1839 
          1839 1766 1840 
          1766 1765 1840 
          1840 1765 1841 
          1765 1764 1841 
          1838 1839 1842 
          1839 1840 1842 
          1838 1842 1837 
          1841 1764 1843 
          1764 1763 1843 
          1843 1763 1844 
          1763 1761 1844 
          1761 1762 1844 
          1762 1795 1844 
          1795 1830 1844 
          1843 1844 1845 
          1844 1830 1845 
          1830 1831 1845 
          1845 1831 1846 
          1831 1832 1846 
          1841 1843 1847 
          1843 1845 1847 
          1845 1846 1847 
          1840 1841 1848 
          1841 1847 1848 
          1840 1848 1842 
          1848 1847 1849 
          1847 1846 1849 
          1842 1848 1850 
          1848 1849 1850 
          1837 1842 1851 
          1842 1850 1851 
          1837 1851 1836 
          1836 1851 1835 
          1835 1851 1833 
          1833 1851 1834 
          1851 1850 1834 
          1829 1834 1852 
          1834 1850 1852 
          1829 1852 1832 
          1850 1849 1852 
          1849 1846 1852 
          1846 1832 1852 
          4014 4013 4015 
          1888 1128 1889 
          1128 1127 1889 
          1883 1884 1890 
          1884 1885 1890 
          2964 3768 3770 
          3981 3982 3980 
          1882 1883 1892 
          1883 1890 1892 
          1889 1127 1893 
          1127 1126 1893 
          1099 1098 1894 
          1098 2964 2967 
          1887 1888 1895 
          1888 1889 1895 
          1889 1893 1895 
          1890 1885 1896 
          1885 1886 1896 
          1890 1896 1892 
          2914 3765 3767 
          3988 3989 3987 
          1894 1891 1898 
          1891 2914 2916 
          1100 1099 1899 
          1099 1894 1899 
          1899 1894 1900 
          1894 1898 1900 
          1101 1100 1901 
          1100 1899 1901 
          1102 1101 1902 
          1101 1901 1902 
          1103 1102 1903 
          1102 1902 1903 
          1104 1103 1904 
          1103 1903 1904 
          1105 1104 1905 
          1104 1904 1905 
          1106 1105 1906 
          1105 1905 1906 
          1107 1106 1907 
          1106 1906 1907 
          1108 1107 1908 
          1107 1907 1908 
          1109 1108 1909 
          1108 1908 1909 
          1110 1109 1910 
          1109 1909 1910 
          1111 1110 1911 
          1110 1910 1911 
          1112 1111 1912 
          1111 1911 1912 
          1113 1112 1913 
          1112 1912 1913 
          1114 1113 1914 
          1113 1913 1914 
          1115 1114 1915 
          1114 1914 1915 
          1116 1115 1916 
          1115 1915 1916 
          1117 1116 1917 
          1116 1916 1917 
          1118 1117 1918 
          1117 1917 1918 
          1119 1118 1919 
          1118 1918 1919 
          1120 1119 1920 
          1119 1919 1920 
          1121 1120 1921 
          1120 1920 1921 
          1122 1121 1922 
          1121 1921 1922 
          1123 1122 1923 
          1122 1922 1923 
          1124 1123 1924 
          1123 1923 1924 
          1125 1124 1925 
          1124 1924 1925 
          1126 1125 1926 
          1125 1925 1926 
          1126 1926 1893 
          2975 3762 3764 
          4001 4002 4000 
          1898 1897 1928 
          1897 2975 2977 
          1898 1928 1900 
          2979 3760 3761 
          3755 3756 3757 
          1080 4011 4010 
          4011 4012 4010 
          1929 1854 1930 
          1854 1855 1930 
          1927 2979 2981 
          1929 1930 1931 
          1927 1931 1928 
          1930 1855 1932 
          1855 1856 1932 
          1932 1856 1933 
          1856 1857 1933 
          1933 1857 1934 
          1857 1858 1934 
          1934 1858 1935 
          1858 1859 1935 
          1935 1859 1936 
          1859 1860 1936 
          1936 1860 1937 
          1860 1861 1937 
          1937 1861 1938 
          1861 1862 1938 
          1938 1862 1939 
          1862 1863 1939 
          1939 1863 1940 
          1863 1864 1940 
          1940 1864 1941 
          1864 1865 1941 
          1941 1865 1942 
          1865 1866 1942 
          1942 1866 1943 
          1866 1867 1943 
          1943 1867 1944 
          1867 1868 1944 
          1944 1868 1945 
          1868 1869 1945 
          1945 1869 1946 
          1869 1870 1946 
          1946 1870 1947 
          1870 1871 1947 
          1947 1871 1948 
          1871 1872 1948 
          1948 1872 1949 
          1872 1873 1949 
          1949 1873 1950 
          1873 1874 1950 
          1950 1874 1951 
          1874 1875 1951 
          1951 1875 1952 
          1875 1876 1952 
          1952 1876 1953 
          1876 1877 1953 
          1953 1877 1954 
          1877 1878 1954 
          1954 1878 1955 
          1878 1879 1955 
          1955 1879 1956 
          1879 1880 1956 
          1956 1880 1957 
          1880 1881 1957 
          1957 1881 1958 
          1881 1882 1958 
          1882 1892 1958 
          1958 1892 1959 
          1892 1896 1959 
          1895 1893 1960 
          1893 1926 1960 
          1886 1887 1961 
          1887 1895 1961 
          1886 1961 1896 
          1895 1960 1961 
          1896 1961 1959 
          1961 1960 1959 
          1901 1899 1962 
          1899 1900 1962 
          1962 1900 1963 
          1900 1928 1963 
          1928 1931 1963 
          1963 1931 1964 
          1931 1930 1964 
          1930 1932 1964 
          1964 1932 1965 
          1932 1933 1965 
          1965 1933 1966 
          1933 1934 1966 
          1963 1964 1967 
          1964 1965 1967 
          1963 1967 1962 
          1967 1965 1968 
          1965 1966 1968 
          1966 1934 1969 
          1934 1935 1969 
          1968 1966 1970 
          1966 1969 1970 
          1962 1967 1971 
          1967 1968 1971 
          1962 1971 1901 
          1901 1971 1902 
          1971 1968 1972 
          1968 1970 1972 
          1902 1971 1973 
          1971 1972 1973 
          1902 1973 1903 
          1969 1935 1974 
          1935 1936 1974 
          1970 1969 1975 
          1969 1974 1975 
          1970 1975 1972 
          1972 1975 1973 
          1903 1973 1976 
          1973 1975 1976 
          1903 1976 1904 
          1976 1975 1977 
          1975 1974 1977 
          1905 1904 1978 
          1904 1976 1978 
          1976 1977 1978 
          1906 1905 1979 
          1905 1978 1979 
          1907 1906 1980 
          1906 1979 1980 
          1977 1974 1981 
          1974 1936 1981 
          1936 1937 1981 
          1978 1977 1982 
          1977 1981 1982 
          1978 1982 1979 
          1982 1981 1983 
          1981 1937 1983 
          1937 1938 1983 
          1979 1982 1984 
          1982 1983 1984 
          1979 1984 1980 
          1984 1983 1985 
          1983 1938 1985 
          1938 1939 1985 
          1980 1984 1986 
          1984 1985 1986 
          1986 1985 1987 
          1985 1939 1987 
          1939 1940 1987 
          1908 1907 1988 
          1907 1980 1988 
          1980 1986 1988 
          1988 1986 1989 
          1986 1987 1989 
          1989 1987 1990 
          1987 1940 1990 
          1940 1941 1990 
          1990 1941 1991 
          1941 1942 1991 
          1991 1942 1992 
          1942 1943 1992 
          1992 1943 1993 
          1943 1944 1993 
          1993 1944 1994 
          1944 1945 1994 
          1994 1945 1995 
          1945 1946 1995 
          1995 1946 1996 
          1946 1947 1996 
          1996 1947 1997 
          1947 1948 1997 
          1997 1948 1998 
          1948 1949 1998 
          1998 1949 1999 
          1949 1950 1999 
          1999 1950 2000 
          1950 1951 2000 
          2000 1951 2001 
          1951 1952 2001 
          2001 1952 2002 
          1952 1953 2002 
          2002 1953 2003 
          1953 1954 2003 
          2003 1954 2004 
          1954 1955 2004 
          2004 1955 2005 
          1955 1956 2005 
          2005 1956 2006 
          1956 1957 2006 
          2006 1957 2007 
          1957 1958 2007 
          1958 1959 2007 
          2007 1959 2008 
          1959 1960 2008 
          2008 1960 2009 
          1960 1926 2009 
          1926 1925 2009 
          2006 2007 2010 
          2007 2008 2010 
          2010 2008 2011 
          2008 2009 2011 
          2011 2009 2012 
          2009 1925 2012 
          1925 1924 2012 
          2005 2006 2013 
          2006 2010 2013 
          2013 2010 2014 
          2010 2011 2014 
          2014 2011 2015 
          2011 2012 2015 
          2012 1924 2015 
          2015 1924 2016 
          1924 1923 2016 
          2014 2015 2017 
          2015 2016 2017 
          2014 2017 2013 
          2016 1923 2018 
          1923 1922 2018 
          1909 1908 2019 
          1908 1988 2019 
          1988 1989 2019 
          2019 1989 2020 
          1989 1990 2020 
          1990 1991 2020 
          1909 2019 2021 
          2019 2020 2021 
          1909 2021 1910 
          2021 2020 2022 
          2020 1991 2022 
          1991 1992 2022 
          1910 2021 2023 
          2021 2022 2023 
          1910 2023 1911 
          1912 1911 2024 
          1911 2023 2024 
          2024 2023 2025 
          2023 2022 2025 
          2022 1992 2025 
          1992 1993 2025 
          2025 1993 2026 
          1993 1994 2026 
          2025 2026 2024 
          2026 1994 2027 
          1994 1995 2027 
          1912 2024 2028 
          2024 2026 2028 
          1912 2028 1913 
          2026 2027 2028 
          1914 1913 2029 
          1913 2028 2029 
          2028 2027 2029 
          2027 1995 2030 
          1995 1996 2030 
          2027 2030 2029 
          1914 2029 2031 
          2029 2030 2031 
          1914 2031 1915 
          1916 1915 2032 
          1915 2031 2032 
          2032 2031 2033 
          2031 2030 2033 
          2030 1996 2033 
          1996 1997 2033 
          2033 1997 2034 
          1997 1998 2034 
          2033 2034 2032 
          2034 1998 2035 
          1998 1999 2035 
          1916 2032 2036 
          2032 2034 2036 
          1916 2036 1917 
          2034 2035 2036 
          1918 1917 2037 
          1917 2036 2037 
          2036 2035 2037 
          2035 1999 2038 
          1999 2000 2038 
          2035 2038 2037 
          2038 2000 2039 
          2000 2001 2039 
          2037 2038 2040 
          2038 2039 2040 
          2037 2040 1918 
          1918 2040 1919 
          1920 1919 2041 
          1919 2040 2041 
          2040 2039 2041 
          1921 1920 2042 
          1920 2041 2042 
          2042 2041 2043 
          2041 2039 2043 
          2039 2001 2043 
          2001 2002 2043 
          2043 2002 2044 
          2002 2003 2044 
          2043 2044 2042 
          2044 2003 2045 
          2003 2004 2045 
          1921 2042 2046 
          2042 2044 2046 
          1921 2046 1922 
          1922 2046 2018 
          2044 2045 2046 
          2046 2045 2018 
          2016 2018 2047 
          2018 2045 2047 
          2016 2047 2017 
          2045 2004 2047 
          2004 2005 2047 
          2005 2013 2047 
          2013 2017 2047 
          3574 3575 3573 
          2090 1884 2091 
          1884 1883 2091 
          2080 2081 2092 
          2081 2082 2092 
          2908 3708 3710 
          4021 4022 4020 
          2079 2080 2094 
          2080 2092 2094 
          2089 2090 2095 
          2090 2091 2095 
          2091 1883 2096 
          1883 1882 2096 
          2091 2096 2095 
          2092 2082 2097 
          2082 2083 2097 
          2092 2097 2094 
          1854 1853 2098 
          1853 2908 2910 
          2994 3705 3707 
          4035 4036 4034 
          2098 2093 2100 
          2093 2994 2996 
          1855 1854 2101 
          1854 2098 2101 
          2101 2098 2102 
          2098 2100 2102 
          1856 1855 2103 
          1855 2101 2103 
          1857 1856 2104 
          1856 2103 2104 
          1858 1857 2105 
          1857 2104 2105 
          1859 1858 2106 
          1858 2105 2106 
          1860 1859 2107 
          1859 2106 2107 
          1861 1860 2108 
          1860 2107 2108 
          1862 1861 2109 
          1861 2108 2109 
          1863 1862 2110 
          1862 2109 2110 
          1864 1863 2111 
          1863 2110 2111 
          1865 1864 2112 
          1864 2111 2112 
          1866 1865 2113 
          1865 2112 2113 
          1867 1866 2114 
          1866 2113 2114 
          1868 1867 2115 
          1867 2114 2115 
          1869 1868 2116 
          1868 2115 2116 
          1870 1869 2117 
          1869 2116 2117 
          1871 1870 2118 
          1870 2117 2118 
          1872 1871 2119 
          1871 2118 2119 
          1873 1872 2120 
          1872 2119 2120 
          1874 1873 2121 
          1873 2120 2121 
          1875 1874 2122 
          1874 2121 2122 
          1876 1875 2123 
          1875 2122 2123 
          1877 1876 2124 
          1876 2123 2124 
          1878 1877 2125 
          1877 2124 2125 
          1879 1878 2126 
          1878 2125 2126 
          1880 1879 2127 
          1879 2126 2127 
          1881 1880 2128 
          1880 2127 2128 
          1882 1881 2129 
          1881 2128 2129 
          1882 2129 2096 
          2997 3702 3704 
          4048 4049 4047 
          2100 2099 2131 
          2099 2997 2999 
          2100 2131 2102 
          3001 3700 3701 
          3695 3696 3697 
          2902 4057 4059 
          3686 3687 3688 
          3011 3677 3679 
          3674 3675 3676 
          2900 3642 3644 
          3639 3640 3641 
          2885 3619 3621 
          3616 3617 3618 
          2883 3596 3598 
          3593 3594 3595 
          1070 3411 3413 
          3411 3412 3413 
          2137 2049 2138 
          2049 2050 2138 
          2136 2883 2884 
          2138 2050 2139 
          2050 2051 2139 
          2139 2051 2140 
          2051 2052 2140 
          2140 2052 2141 
          2052 2053 2141 
          2141 2053 2142 
          2053 2054 2142 
          2142 2054 2143 
          2054 2055 2143 
          2143 2055 2144 
          2055 2056 2144 
          2144 2056 2145 
          2056 2057 2145 
          2145 2057 2146 
          2057 2058 2146 
          2146 2058 2147 
          2058 2059 2147 
          2147 2059 2148 
          2059 2060 2148 
          2148 2060 2149 
          2060 2061 2149 
          2149 2061 2150 
          2061 2062 2150 
          2150 2062 2151 
          2062 2063 2151 
          2151 2063 2152 
          2063 2064 2152 
          2152 2064 2153 
          2064 2065 2153 
          2153 2065 2154 
          2065 2066 2154 
          2154 2066 2155 
          2066 2067 2155 
          2155 2067 2156 
          2067 2068 2156 
          2156 2068 2157 
          2068 2069 2157 
          2157 2069 2158 
          2069 2070 2158 
          2158 2070 2159 
          2070 2071 2159 
          2159 2071 2160 
          2071 2072 2160 
          2160 2072 2161 
          2072 2073 2161 
          2161 2073 2162 
          2073 2074 2162 
          2162 2074 2163 
          2074 2075 2163 
          2163 2075 2164 
          2075 2076 2164 
          2164 2076 2165 
          2076 2077 2165 
          2165 2077 2166 
          2077 2078 2166 
          2166 2078 2167 
          2078 2079 2167 
          2079 2094 2167 
          2135 2885 2887 
          2136 2138 2168 
          2168 2138 2169 
          2138 2139 2169 
          2169 2139 2170 
          2139 2140 2170 
          2170 2140 2171 
          2140 2141 2171 
          2134 2900 2901 
          2135 2168 2172 
          2133 3011 3013 
          2134 2172 2173 
          2132 2902 2904 
          2133 2173 2174 
          2171 2141 2175 
          2141 2142 2175 
          2130 3001 3003 
          2132 2174 2176 
          2130 2176 2131 
          2088 2089 2177 
          2089 2095 2177 
          2087 2088 2178 
          2088 2177 2178 
          2086 2087 2179 
          2087 2178 2179 
          2085 2086 2180 
          2086 2179 2180 
          2084 2085 2181 
          2085 2180 2181 
          2083 2084 2182 
          2084 2181 2182 
          2083 2182 2097 
          2167 2094 2183 
          2094 2097 2183 
          2097 2182 2183 
          2103 2101 2184 
          2101 2102 2184 
          2184 2102 2185 
          2102 2131 2185 
          2131 2176 2185 
          2175 2142 2186 
          2142 2143 2186 
          2186 2143 2187 
          2143 2144 2187 
          2187 2144 2188 
          2144 2145 2188 
          2188 2145 2189 
          2145 2146 2189 
          2189 2146 2190 
          2146 2147 2190 
          2190 2147 2191 
          2147 2148 2191 
          2191 2148 2192 
          2148 2149 2192 
          2192 2149 2193 
          2149 2150 2193 
          2193 2150 2194 
          2150 2151 2194 
          2194 2151 2195 
          2151 2152 2195 
          2195 2152 2196 
          2152 2153 2196 
          2196 2153 2197 
          2153 2154 2197 
          2197 2154 2198 
          2154 2155 2198 
          2198 2155 2199 
          2155 2156 2199 
          2199 2156 2200 
          2156 2157 2200 
          2200 2157 2201 
          2157 2158 2201 
          2201 2158 2202 
          2158 2159 2202 
          2202 2159 2203 
          2159 2160 2203 
          2203 2160 2204 
          2160 2161 2204 
          2204 2161 2205 
          2161 2162 2205 
          2205 2162 2206 
          2162 2163 2206 
          2206 2163 2207 
          2163 2164 2207 
          2207 2164 2208 
          2164 2165 2208 
          2208 2165 2209 
          2165 2166 2209 
          2209 2166 2210 
          2166 2167 2210 
          2167 2183 2210 
          2095 2096 2211 
          2096 2129 2211 
          2095 2211 2177 
          2178 2177 2212 
          2177 2211 2212 
          2179 2178 2213 
          2178 2212 2213 
          2180 2179 2214 
          2179 2213 2214 
          2181 2180 2215 
          2180 2214 2215 
          2182 2181 2216 
          2181 2215 2216 
          2182 2216 2183 
          2210 2183 2217 
          2183 2216 2217 
          2209 2210 2218 
          2210 2217 2218 
          2217 2216 2219 
          2216 2215 2219 
          2218 2217 2220 
          2217 2219 2220 
          2219 2215 2221 
          2215 2214 2221 
          2220 2219 2222 
          2219 2221 2222 
          2208 2209 2223 
          2209 2218 2223 
          2223 2218 2224 
          2218 2220 2224 
          2224 2220 2225 
          2220 2222 2225 
          2221 2214 2226 
          2214 2213 2226 
          2222 2221 2227 
          2221 2226 2227 
          2225 2222 2228 
          2222 2227 2228 
          2207 2208 2229 
          2208 2223 2229 
          2229 2223 2230 
          2223 2224 2230 
          2230 2224 2231 
          2224 2225 2231 
          2225 2228 2231 
          2206 2207 2232 
          2207 2229 2232 
          2205 2206 2233 
          2206 2232 2233 
          2204 2205 2234 
          2205 2233 2234 
          2203 2204 2235 
          2204 2234 2235 
          2202 2203 2236 
          2203 2235 2236 
          2201 2202 2237 
          2202 2236 2237 
          2200 2201 2238 
          2201 2237 2238 
          2199 2200 2239 
          2200 2238 2239 
          2198 2199 2240 
          2199 2239 2240 
          2197 2198 2241 
          2198 2240 2241 
          2196 2197 2242 
          2197 2241 2242 
          2195 2196 2243 
          2196 2242 2243 
          2194 2195 2244 
          2195 2243 2244 
          2193 2194 2245 
          2194 2244 2245 
          2192 2193 2246 
          2193 2245 2246 
          2191 2192 2247 
          2192 2246 2247 
          2190 2191 2248 
          2191 2247 2248 
          2189 2190 2249 
          2190 2248 2249 
          2188 2189 2250 
          2189 2249 2250 
          2187 2188 2251 
          2188 2250 2251 
          2226 2213 2252 
          2213 2212 2252 
          2227 2226 2253 
          2226 2252 2253 
          2228 2227 2254 
          2227 2253 2254 
          2231 2228 2255 
          2228 2254 2255 
          2230 2231 2256 
          2231 2255 2256 
          2229 2230 2257 
          2230 2256 2257 
          2229 2257 2232 
          2186 2187 2258 
          2187 2251 2258 
          2252 2212 2259 
          2212 2211 2259 
          2211 2129 2259 
          2129 2128 2259 
          2259 2128 2260 
          2128 2127 2260 
          2260 2127 2261 
          2127 2126 2261 
          2261 2126 2262 
          2126 2125 2262 
          2252 2259 2263 
          2259 2260 2263 
          2252 2263 2253 
          2254 2253 2264 
          2253 2263 2264 
          2255 2254 2265 
          2254 2264 2265 
          2256 2255 2266 
          2255 2265 2266 
          2257 2256 2267 
          2256 2266 2267 
          2262 2125 2268 
          2125 2124 2268 
          2268 2124 2269 
          2124 2123 2269 
          2269 2123 2270 
          2123 2122 2270 
          2270 2122 2271 
          2122 2121 2271 
          2271 2121 2272 
          2121 2120 2272 
          2272 2120 2273 
          2120 2119 2273 
          2273 2119 2274 
          2119 2118 2274 
          2274 2118 2275 
          2118 2117 2275 
          2275 2117 2276 
          2117 2116 2276 
          2276 2116 2277 
          2116 2115 2277 
          2277 2115 2278 
          2115 2114 2278 
          2278 2114 2279 
          2114 2113 2279 
          2279 2113 2280 
          2113 2112 2280 
          2280 2112 2281 
          2112 2111 2281 
          2281 2111 2282 
          2111 2110 2282 
          2282 2110 2283 
          2110 2109 2283 
          2283 2109 2284 
          2109 2108 2284 
          2284 2108 2285 
          2108 2107 2285 
          2285 2107 2286 
          2107 2106 2286 
          2286 2106 2287 
          2106 2105 2287 
          2287 2105 2288 
          2105 2104 2288 
          2288 2104 2289 
          2104 2103 2289 
          2103 2184 2289 
          2263 2260 2290 
          2260 2261 2290 
          2263 2290 2264 
          2290 2261 2291 
          2261 2262 2291 
          2291 2262 2292 
          2262 2268 2292 
          2292 2268 2293 
          2268 2269 2293 
          2265 2264 2294 
          2264 2290 2294 
          2290 2291 2294 
          2294 2291 2295 
          2291 2292 2295 
          2292 2293 2295 
          2266 2265 2296 
          2265 2294 2296 
          2267 2266 2297 
          2266 2296 2297 
          2296 2294 2298 
          2294 2295 2298 
          2297 2296 2299 
          2296 2298 2299 
          2293 2269 2300 
          2269 2270 2300 
          2300 2270 2301 
          2270 2271 2301 
          2301 2271 2302 
          2271 2272 2302 
          2302 2272 2303 
          2272 2273 2303 
          2303 2273 2304 
          2273 2274 2304 
          2304 2274 2305 
          2274 2275 2305 
          2305 2275 2306 
          2275 2276 2306 
          2306 2276 2307 
          2276 2277 2307 
          2307 2277 2308 
          2277 2278 2308 
          2308 2278 2309 
          2278 2279 2309 
          2309 2279 2310 
          2279 2280 2310 
          2310 2280 2311 
          2280 2281 2311 
          2311 2281 2312 
          2281 2282 2312 
          2312 2282 2313 
          2282 2283 2313 
          2313 2283 2314 
          2283 2284 2314 
          2314 2284 2315 
          2284 2285 2315 
          2315 2285 2316 
          2285 2286 2316 
          2316 2286 2317 
          2286 2287 2317 
          2317 2287 2318 
          2287 2288 2318 
          2318 2288 2319 
          2288 2289 2319 
          2319 2289 2320 
          2289 2184 2320 
          2184 2185 2320 
          2320 2185 2321 
          2185 2176 2321 
          2176 2174 2321 
          2321 2174 2322 
          2174 2173 2322 
          2322 2173 2323 
          2173 2172 2323 
          2323 2172 2324 
          2172 2168 2324 
          2168 2169 2324 
          2175 2186 2325 
          2186 2258 2325 
          2171 2175 2326 
          2175 2325 2326 
          2170 2171 2327 
          2171 2326 2327 
          2170 2327 2169 
          2324 2169 2328 
          2169 2327 2328 
          2328 2327 2329 
          2327 2326 2329 
          2323 2324 2330 
          2324 2328 2330 
          2323 2330 2322 
          2329 2326 2331 
          2326 2325 2331 
          2330 2328 2332 
          2328 2329 2332 
          2329 2331 2332 
          2322 2330 2333 
          2330 2332 2333 
          2321 2322 2334 
          2322 2333 2334 
          2320 2321 2335 
          2321 2334 2335 
          2320 2335 2319 
          2318 2319 2336 
          2319 2335 2336 
          2317 2318 2337 
          2318 2336 2337 
          2316 2317 2338 
          2317 2337 2338 
          2315 2316 2339 
          2316 2338 2339 
          2314 2315 2340 
          2315 2339 2340 
          2313 2314 2341 
          2314 2340 2341 
          2312 2313 2342 
          2313 2341 2342 
          2311 2312 2343 
          2312 2342 2343 
          2310 2311 2344 
          2311 2343 2344 
          2309 2310 2345 
          2310 2344 2345 
          2308 2309 2346 
          2309 2345 2346 
          2307 2308 2347 
          2308 2346 2347 
          2306 2307 2348 
          2307 2347 2348 
          2305 2306 2349 
          2306 2348 2349 
          2304 2305 2350 
          2305 2349 2350 
          2303 2304 2351 
          2304 2350 2351 
          2302 2303 2352 
          2303 2351 2352 
          2301 2302 2353 
          2302 2352 2353 
          2300 2301 2354 
          2301 2353 2354 
          2333 2332 2355 
          2332 2331 2355 
          2334 2333 2356 
          2333 2355 2356 
          2335 2334 2357 
          2334 2356 2357 
          2335 2357 2336 
          2355 2331 2358 
          2331 2325 2358 
          2325 2258 2358 
          2356 2355 2359 
          2355 2358 2359 
          2357 2356 2360 
          2356 2359 2360 
          2336 2357 2361 
          2357 2360 2361 
          2337 2336 2362 
          2336 2361 2362 
          2338 2337 2363 
          2337 2362 2363 
          2339 2338 2364 
          2338 2363 2364 
          2340 2339 2365 
          2339 2364 2365 
          2341 2340 2366 
          2340 2365 2366 
          2342 2341 2367 
          2341 2366 2367 
          2343 2342 2368 
          2342 2367 2368 
          2344 2343 2369 
          2343 2368 2369 
          2345 2344 2370 
          2344 2369 2370 
          2346 2345 2371 
          2345 2370 2371 
          2347 2346 2372 
          2346 2371 2372 
          2348 2347 2373 
          2347 2372 2373 
          2349 2348 2374 
          2348 2373 2374 
          2350 2349 2375 
          2349 2374 2375 
          2351 2350 2376 
          2350 2375 2376 
          2352 2351 2377 
          2351 2376 2377 
          2353 2352 2378 
          2352 2377 2378 
          2354 2353 2379 
          2353 2378 2379 
          2361 2360 2380 
          2360 2359 2380 
          2362 2361 2381 
          2361 2380 2381 
          2363 2362 2382 
          2362 2381 2382 
          2364 2363 2383 
          2363 2382 2383 
          2365 2364 2384 
          2364 2383 2384 
          2380 2359 2385 
          2359 2358 2385 
          2358 2258 2385 
          2381 2380 2386 
          2380 2385 2386 
          2382 2381 2387 
          2381 2386 2387 
          2385 2258 2388 
          2258 2251 2388 
          2385 2388 2386 
          2386 2388 2387 
          2388 2251 2389 
          2251 2250 2389 
          2383 2382 2390 
          2382 2387 2390 
          2387 2388 2390 
          2390 2388 2391 
          2388 2389 2391 
          2390 2391 2383 
          2383 2391 2384 
          2389 2250 2392 
          2250 2249 2392 
          2391 2389 2393 
          2389 2392 2393 
          2391 2393 2384 
          2392 2249 2394 
          2249 2248 2394 
          2393 2392 2395 
          2392 2394 2395 
          2384 2393 2396 
          2393 2395 2396 
          2384 2396 2365 
          2365 2396 2366 
          2366 2396 2397 
          2396 2395 2397 
          2395 2394 2397 
          2366 2397 2367 
          2394 2248 2398 
          2248 2247 2398 
          2394 2398 2397 
          2367 2397 2399 
          2397 2398 2399 
          2367 2399 2368 
          2399 2398 2400 
          2398 2247 2400 
          2247 2246 2400 
          2369 2368 2401 
          2368 2399 2401 
          2399 2400 2401 
          2370 2369 2402 
          2369 2401 2402 
          2401 2400 2403 
          2400 2246 2403 
          2246 2245 2403 
          2402 2401 2404 
          2401 2403 2404 
          2403 2245 2405 
          2245 2244 2405 
          2403 2405 2404 
          2371 2370 2406 
          2370 2402 2406 
          2406 2402 2407 
          2402 2404 2407 
          2407 2404 2408 
          2404 2405 2408 
          2405 2244 2408 
          2244 2243 2408 
          2372 2371 2409 
          2371 2406 2409 
          2409 2406 2410 
          2406 2407 2410 
          2410 2407 2411 
          2407 2408 2411 
          2408 2243 2411 
          2411 2243 2412 
          2243 2242 2412 
          2411 2412 2410 
          2409 2410 2413 
          2410 2412 2413 
          2372 2409 2414 
          2409 2413 2414 
          2372 2414 2373 
          2412 2242 2415 
          2242 2241 2415 
          2412 2415 2413 
          2414 2413 2416 
          2413 2415 2416 
          2373 2414 2417 
          2414 2416 2417 
          2373 2417 2374 
          2415 2241 2418 
          2241 2240 2418 
          2415 2418 2416 
          2417 2416 2419 
          2416 2418 2419 
          2417 2419 2374 
          2375 2374 2420 
          2374 2419 2420 
          2376 2375 2421 
          2375 2420 2421 
          2377 2376 2422 
          2376 2421 2422 
          2378 2377 2423 
          2377 2422 2423 
          2379 2378 2424 
          2378 2423 2424 
          2418 2240 2425 
          2240 2239 2425 
          2418 2425 2419 
          2419 2425 2420 
          2421 2420 2426 
          2420 2425 2426 
          2426 2425 2427 
          2425 2239 2427 
          2239 2238 2427 
          2422 2421 2428 
          2421 2426 2428 
          2428 2426 2429 
          2426 2427 2429 
          2427 2238 2429 
          2238 2237 2429 
          2423 2422 2430 
          2422 2428 2430 
          2430 2428 2431 
          2428 2429 2431 
          2429 2237 2431 
          2431 2237 2432 
          2237 2236 2432 
          2431 2432 2430 
          2423 2430 2433 
          2430 2432 2433 
          2423 2433 2424 
          2432 2236 2434 
          2236 2235 2434 
          2432 2434 2433 
          2424 2433 2435 
          2433 2434 2435 
          2379 2424 2436 
          2424 2435 2436 
          2434 2235 2437 
          2235 2234 2437 
          2434 2437 2435 
          2436 2435 2438 
          2435 2437 2438 
          2437 2234 2439 
          2234 2233 2439 
          2437 2439 2438 
          2439 2233 2440 
          2233 2232 2440 
          2232 2257 2440 
          2257 2267 2440 
          2440 2267 2441 
          2267 2297 2441 
          2297 2299 2441 
          2439 2440 2442 
          2440 2441 2442 
          2439 2442 2438 
          2354 2379 2443 
          2379 2436 2443 
          2443 2436 2444 
          2436 2438 2444 
          2438 2442 2444 
          2293 2300 2445 
          2300 2354 2445 
          2293 2445 2295 
          2354 2443 2445 
          2295 2445 2298 
          2298 2445 2446 
          2445 2443 2446 
          2443 2444 2446 
          2444 2442 2446 
          2298 2446 2299 
          2299 2446 2441 
          2446 2442 2441 
          3504 3503 3505 
          2480 2481 2486 
          2481 2482 2486 
          2485 2081 2487 
          2081 2080 2487 
          2866 3571 3572 
          3454 3455 3456 
          2479 2480 2489 
          2480 2486 2489 
          2487 2080 2490 
          2080 2079 2490 
          2049 2048 2491 
          2048 2866 2867 
          2484 2485 2492 
          2485 2487 2492 
          2487 2490 2492 
          2486 2482 2493 
          2482 2483 2493 
          2486 2493 2489 
          2851 3457 3459 
          3442 3443 3444 
          2491 2488 2495 
          2488 2851 2853 
          2050 2049 2496 
          2049 2491 2496 
          2496 2491 2497 
          2491 2495 2497 
          2051 2050 2498 
          2050 2496 2498 
          2052 2051 2499 
          2051 2498 2499 
          2053 2052 2500 
          2052 2499 2500 
          2054 2053 2501 
          2053 2500 2501 
          2055 2054 2502 
          2054 2501 2502 
          2056 2055 2503 
          2055 2502 2503 
          2057 2056 2504 
          2056 2503 2504 
          2058 2057 2505 
          2057 2504 2505 
          2059 2058 2506 
          2058 2505 2506 
          2060 2059 2507 
          2059 2506 2507 
          2061 2060 2508 
          2060 2507 2508 
          2062 2061 2509 
          2061 2508 2509 
          2063 2062 2510 
          2062 2509 2510 
          2064 2063 2511 
          2063 2510 2511 
          2065 2064 2512 
          2064 2511 2512 
          2066 2065 2513 
          2065 2512 2513 
          2067 2066 2514 
          2066 2513 2514 
          2068 2067 2515 
          2067 2514 2515 
          2069 2068 2516 
          2068 2515 2516 
          2070 2069 2517 
          2069 2516 2517 
          2071 2070 2518 
          2070 2517 2518 
          2072 2071 2519 
          2071 2518 2519 
          2073 2072 2520 
          2072 2519 2520 
          2074 2073 2521 
          2073 2520 2521 
          2075 2074 2522 
          2074 2521 2522 
          2076 2075 2523 
          2075 2522 2523 
          2077 2076 2524 
          2076 2523 2524 
          2078 2077 2525 
          2077 2524 2525 
          2079 2078 2526 
          2078 2525 2526 
          2079 2526 2490 
          2849 3470 3472 
          3439 3440 3441 
          2495 2494 2528 
          2494 2849 2850 
          2495 2528 2497 
          2834 3483 3485 
          3436 3437 3438 
          1065 3501 3500 
          3501 3502 3500 
          2529 2448 2530 
          2448 2449 2530 
          2527 2834 2836 
          2529 2530 2531 
          2527 2531 2528 
          2530 2449 2532 
          2449 2450 2532 
          2532 2450 2533 
          2450 2451 2533 
          2533 2451 2534 
          2451 2452 2534 
          2534 2452 2535 
          2452 2453 2535 
          2535 2453 2536 
          2453 2454 2536 
          2536 2454 2537 
          2454 2455 2537 
          2537 2455 2538 
          2455 2456 2538 
          2538 2456 2539 
          2456 2457 2539 
          2539 2457 2540 
          2457 2458 2540 
          2540 2458 2541 
          2458 2459 2541 
          2541 2459 2542 
          2459 2460 2542 
          2542 2460 2543 
          2460 2461 2543 
          2543 2461 2544 
          2461 2462 2544 
          2544 2462 2545 
          2462 2463 2545 
          2545 2463 2546 
          2463 2464 2546 
          2546 2464 2547 
          2464 2465 2547 
          2547 2465 2548 
          2465 2466 2548 
          2548 2466 2549 
          2466 2467 2549 
          2549 2467 2550 
          2467 2468 2550 
          2550 2468 2551 
          2468 2469 2551 
          2551 2469 2552 
          2469 2470 2552 
          2552 2470 2553 
          2470 2471 2553 
          2553 2471 2554 
          2471 2472 2554 
          2554 2472 2555 
          2472 2473 2555 
          2555 2473 2556 
          2473 2474 2556 
          2556 2474 2557 
          2474 2475 2557 
          2557 2475 2558 
          2475 2476 2558 
          2558 2476 2559 
          2476 2477 2559 
          2559 2477 2560 
          2477 2478 2560 
          2560 2478 2561 
          2478 2479 2561 
          2479 2489 2561 
          2561 2489 2562 
          2489 2493 2562 
          2492 2490 2563 
          2490 2526 2563 
          2483 2484 2564 
          2484 2492 2564 
          2483 2564 2493 
          2492 2563 2564 
          2493 2564 2562 
          2564 2563 2562 
          2498 2496 2565 
          2496 2497 2565 
          2565 2497 2566 
          2497 2528 2566 
          2528 2531 2566 
          2566 2531 2567 
          2531 2530 2567 
          2530 2532 2567 
          2567 2532 2568 
          2532 2533 2568 
          2568 2533 2569 
          2533 2534 2569 
          2566 2567 2570 
          2567 2568 2570 
          2566 2570 2565 
          2570 2568 2571 
          2568 2569 2571 
          2565 2570 2572 
          2570 2571 2572 
          2565 2572 2498 
          2498 2572 2499 
          2569 2534 2573 
          2534 2535 2573 
          2571 2569 2574 
          2569 2573 2574 
          2572 2571 2575 
          2571 2574 2575 
          2499 2572 2576 
          2572 2575 2576 
          2499 2576 2500 
          2573 2535 2577 
          2535 2536 2577 
          2574 2573 2578 
          2573 2577 2578 
          2575 2574 2579 
          2574 2578 2579 
          2575 2579 2576 
          2500 2576 2580 
          2576 2579 2580 
          2579 2578 2580 
          2500 2580 2501 
          2577 2536 2581 
          2536 2537 2581 
          2581 2537 2582 
          2537 2538 2582 
          2582 2538 2583 
          2538 2539 2583 
          2583 2539 2584 
          2539 2540 2584 
          2584 2540 2585 
          2540 2541 2585 
          2585 2541 2586 
          2541 2542 2586 
          2586 2542 2587 
          2542 2543 2587 
          2587 2543 2588 
          2543 2544 2588 
          2588 2544 2589 
          2544 2545 2589 
          2589 2545 2590 
          2545 2546 2590 
          2590 2546 2591 
          2546 2547 2591 
          2591 2547 2592 
          2547 2548 2592 
          2592 2548 2593 
          2548 2549 2593 
          2593 2549 2594 
          2549 2550 2594 
          2594 2550 2595 
          2550 2551 2595 
          2595 2551 2596 
          2551 2552 2596 
          2596 2552 2597 
          2552 2553 2597 
          2597 2553 2598 
          2553 2554 2598 
          2598 2554 2599 
          2554 2555 2599 
          2599 2555 2600 
          2555 2556 2600 
          2600 2556 2601 
          2556 2557 2601 
          2601 2557 2602 
          2557 2558 2602 
          2602 2558 2603 
          2558 2559 2603 
          2603 2559 2604 
          2559 2560 2604 
          2604 2560 2605 
          2560 2561 2605 
          2561 2562 2605 
          2605 2562 2606 
          2562 2563 2606 
          2563 2526 2606 
          2526 2525 2606 
          2604 2605 2607 
          2605 2606 2607 
          2607 2606 2608 
          2606 2525 2608 
          2525 2524 2608 
          2603 2604 2609 
          2604 2607 2609 
          2607 2608 2609 
          2608 2524 2610 
          2524 2523 2610 
          2608 2610 2609 
          2603 2609 2611 
          2609 2610 2611 
          2603 2611 2602 
          2610 2523 2612 
          2523 2522 2612 
          2610 2612 2611 
          2602 2611 2613 
          2611 2612 2613 
          2602 2613 2601 
          2612 2522 2614 
          2522 2521 2614 
          2612 2614 2613 
          2614 2521 2615 
          2521 2520 2615 
          2613 2614 2616 
          2614 2615 2616 
          2613 2616 2601 
          2601 2616 2600 
          2599 2600 2617 
          2600 2616 2617 
          2616 2615 2617 
          2617 2615 2618 
          2615 2520 2618 
          2520 2519 2618 
          2599 2617 2619 
          2617 2618 2619 
          2599 2619 2598 
          2618 2519 2620 
          2519 2518 2620 
          2618 2620 2619 
          2598 2619 2621 
          2619 2620 2621 
          2598 2621 2597 
          2620 2518 2622 
          2518 2517 2622 
          2620 2622 2621 
          2597 2621 2623 
          2621 2622 2623 
          2597 2623 2596 
          2622 2517 2624 
          2517 2516 2624 
          2622 2624 2623 
          2596 2623 2625 
          2623 2624 2625 
          2596 2625 2595 
          2624 2516 2626 
          2516 2515 2626 
          2624 2626 2625 
          2595 2625 2627 
          2625 2626 2627 
          2595 2627 2594 
          2626 2515 2628 
          2515 2514 2628 
          2626 2628 2627 
          2594 2627 2629 
          2627 2628 2629 
          2594 2629 2593 
          2628 2514 2630 
          2514 2513 2630 
          2628 2630 2629 
          2593 2629 2631 
          2629 2630 2631 
          2593 2631 2592 
          2630 2513 2632 
          2513 2512 2632 
          2630 2632 2631 
          2592 2631 2633 
          2631 2632 2633 
          2592 2633 2591 
          2632 2512 2634 
          2512 2511 2634 
          2632 2634 2633 
          2591 2633 2635 
          2633 2634 2635 
          2591 2635 2590 
          2634 2511 2636 
          2511 2510 2636 
          2634 2636 2635 
          2590 2635 2637 
          2635 2636 2637 
          2590 2637 2589 
          2636 2510 2638 
          2510 2509 2638 
          2636 2638 2637 
          2589 2637 2639 
          2637 2638 2639 
          2589 2639 2588 
          2638 2509 2640 
          2509 2508 2640 
          2638 2640 2639 
          2588 2639 2641 
          2639 2640 2641 
          2588 2641 2587 
          2640 2508 2642 
          2508 2507 2642 
          2640 2642 2641 
          2587 2641 2643 
          2641 2642 2643 
          2587 2643 2586 
          2642 2507 2644 
          2507 2506 2644 
          2642 2644 2643 
          2586 2643 2645 
          2643 2644 2645 
          2586 2645 2585 
          2644 2506 2646 
          2506 2505 2646 
          2644 2646 2645 
          2585 2645 2647 
          2645 2646 2647 
          2585 2647 2584 
          2583 2584 2648 
          2584 2647 2648 
          2648 2647 2649 
          2647 2646 2649 
          2646 2505 2649 
          2505 2504 2649 
          2649 2504 2650 
          2504 2503 2650 
          2649 2650 2648 
          2583 2648 2651 
          2648 2650 2651 
          2583 2651 2582 
          2650 2503 2652 
          2503 2502 2652 
          2650 2652 2651 
          2582 2651 2653 
          2651 2652 2653 
          2582 2653 2581 
          2652 2502 2654 
          2502 2501 2654 
          2652 2654 2653 
          2501 2580 2654 
          2654 2580 2655 
          2580 2578 2655 
          2578 2577 2655 
          2577 2581 2655 
          2654 2655 2653 
          2655 2581 2653 
          3813 3815 3816 
          3807 3808 3809 
          3818 3806 3817 
          2659 253 2660 
          4234 4235 4236 
          45 46 2659 
          2659 46 253 
          4234 4233 3811 
          2660 4232 4233 
          4229 4225 4231 
          2662 253 2664 
          2664 254 2665 
          253 252 2664 
          2664 252 254 
          2666 255 2667 
          2667 256 2668 
          255 265 2667 
          2667 265 256 
          2669 258 2670 
          2670 259 2671 
          258 637 2670 
          2670 637 259 
          2672 260 2673 
          2673 261 2674 
          260 635 2673 
          2673 635 261 
          2675 262 2676 
          2676 632 2677 
          262 606 2676 
          2676 606 632 
          3136 3135 3137 
          2677 632 2679 
          632 606 2679 
          2679 606 605 
          3138 3136 3139 
          2678 605 2681 
          605 544 2681 
          2681 544 604 
          3143 3140 3144 
          2683 603 2684 
          603 602 2684 
          2684 602 170 
          3140 3141 3142 
          2685 604 2686 
          604 543 2686 
          2686 543 603 
          3220 3221 3141 
          3224 3138 3222 
          2687 3222 3221 
          3224 3219 3225 
          3220 3216 3217 
          3230 3229 3218 
          3225 3226 3133 
          3229 3132 3227 
          2689 3227 3226 
          2691 261 2692 
          2692 262 2690 
          261 634 2692 
          2692 634 262 
          3232 3233 3130 
          3236 3129 3234 
          2693 3234 3233 
          3231 3206 3232 
          3207 3203 3204 
          3237 3236 3205 
          3215 3210 3216 
          3211 3207 3208 
          3231 3230 3209 
          3211 3212 3146 
          3215 3143 3213 
          2696 3213 3212 
          3145 3146 3147 
          2697 170 2699 
          170 631 2699 
          2699 631 169 
          3148 3149 3150 
          2701 169 2702 
          169 629 2702 
          2702 629 167 
          3198 3199 3149 
          3202 3145 3200 
          2703 3200 3199 
          3202 3197 3203 
          3198 3194 3195 
          3238 3237 3196 
          3238 3193 3239 
          3194 3190 3191 
          3244 3243 3192 
          3239 3240 3127 
          3243 3126 3241 
          2706 3241 3240 
          2708 259 2709 
          2709 260 2707 
          259 636 2709 
          2709 636 260 
          3246 3247 3124 
          3250 3123 3248 
          2710 3248 3247 
          3245 3180 3246 
          3181 3177 3178 
          3251 3250 3179 
          3189 3184 3190 
          3185 3181 3182 
          3245 3244 3183 
          3185 3186 3152 
          3189 3148 3187 
          2713 3187 3186 
          3151 3152 3153 
          2714 167 2716 
          167 168 2716 
          2716 168 151 
          3154 3155 3156 
          2718 151 2719 
          151 152 2719 
          2719 152 141 
          3172 3173 3155 
          3176 3151 3174 
          2720 3174 3173 
          3176 3171 3177 
          3172 3168 3169 
          3252 3251 3170 
          3252 3167 3253 
          3168 3164 3165 
          3258 3257 3166 
          3253 3254 3121 
          3257 3120 3255 
          2723 3255 3254 
          2725 257 2726 
          2726 258 2724 
          257 270 2726 
          2726 270 258 
          3117 3116 3118 
          3264 3265 3114 
          2727 3114 3116 
          2729 256 2730 
          2730 257 2728 
          256 266 2730 
          2730 266 257 
          3268 3113 3266 
          3290 3291 3111 
          2731 3111 3113 
          3269 3270 3268 
          3285 3286 3287 
          3289 3290 3288 
          3274 3273 3275 
          3284 3285 3272 
          3269 3263 3271 
          3259 3260 3117 
          3276 3275 3261 
          3263 3264 3262 
          3160 3163 3164 
          3277 3276 3161 
          3259 3258 3162 
          3277 3159 3278 
          3160 3154 3157 
          2737 3157 3159 
          3279 3278 3280 
          2738 141 2740 
          141 148 2740 
          2740 148 26 
          3279 3281 3274 
          2739 3282 3281 
          3108 3284 3283 
          2741 26 2742 
          2742 877 2743 
          26 25 2742 
          2742 25 877 
          3304 3305 3306 
          2745 877 2746 
          877 903 2746 
          2746 903 876 
          3307 3303 3305 
          3300 3110 3301 
          2747 3301 3303 
          3300 3299 3286 
          3307 3308 3298 
          3295 3289 3297 
          3295 3296 3294 
          3308 3309 3310 
          3312 3313 3311 
          3294 3107 3292 
          3313 3314 3105 
          2750 3105 3107 
          2752 254 2753 
          2753 255 2751 
          254 264 2753 
          2753 264 255 
          3317 3104 3315 
          4227 4228 3102 
          2754 3102 3104 
          3318 3101 3317 
          3330 3331 3099 
          4226 4227 3100 
          3322 3321 3309 
          3329 3330 3320 
          3318 3312 3319 
          3329 3325 3327 
          3322 3304 3323 
          2757 3323 3325 
          3326 3327 3328 
          2758 876 2760 
          876 904 2760 
          2760 904 875 
          4217 4218 4219 
          2762 875 2763 
          875 909 2763 
          2763 909 874 
          4220 3335 4218 
          3332 3326 3333 
          2764 3333 3335 
          3332 3098 3331 
          4220 4221 3096 
          4224 4226 3097 
          4224 4223 4225 
          4221 4216 4222 
          3810 3811 3812 
          4215 4214 4216 
          4212 3807 4213 
          3813 3810 3814 
          4212 3338 4210 
          4215 4217 3336 
          2767 3336 3338 
          4209 4210 4211 
          2768 874 2770 
          874 925 2770 
          2770 925 873 
          4195 4196 4197 
          2772 872 2773 
          872 930 2773 
          2773 930 871 
          4181 4182 4183 
          2775 869 2776 
          869 870 2776 
          2776 870 864 
          4167 4168 4169 
          2778 861 2779 
          861 867 2779 
          2779 867 847 
          4154 4155 4156 
          2781 1516 2782 
          1516 1518 2782 
          2782 1518 1514 
          4140 4141 4142 
          2784 1501 2785 
          1501 1502 2785 
          2785 1502 1495 
          4120 4121 4122 
          2787 1622 2788 
          1622 1623 2788 
          2788 1623 1621 
          4106 4107 4108 
          2790 1620 2791 
          1620 1637 2791 
          2791 1637 1619 
          4092 4093 4094 
          2793 1618 2794 
          1618 1639 2794 
          2794 1639 1617 
          4078 4079 4080 
          2796 1615 2797 
          1615 1616 2797 
          2797 1616 1604 
          3659 3661 3662 
          2799 1598 2800 
          1598 1603 2800 
          2800 1603 1595 
          3659 3658 3660 
          2798 3657 3658 
          3653 3655 3656 
          2801 1595 2803 
          2803 1760 2804 
          1595 1594 2803 
          2803 1594 1760 
          3606 3607 3608 
          2806 1759 2807 
          1759 1777 2807 
          2807 1777 1758 
          3557 3558 3559 
          2809 1757 2810 
          1757 1791 2810 
          2810 1791 1756 
          3424 3425 3426 
          2812 1755 2813 
          1755 1793 2813 
          2813 1793 1754 
          3430 3431 3432 
          2815 1752 2816 
          1752 1753 2816 
          2816 1753 1746 
          3513 3512 3514 
          3509 3508 3510 
          3522 3521 3511 
          3515 3516 3517 
          2821 1744 2822 
          1744 1750 2822 
          2822 1750 1741 
          3514 3518 3516 
          3521 3433 3519 
          2819 3519 3518 
          3433 3434 3435 
          2824 1746 2825 
          1746 1751 2825 
          2825 1751 1744 
          3524 3525 3434 
          3528 3430 3526 
          2826 3526 3525 
          3523 3497 3524 
          3494 3498 3495 
          3529 3528 3496 
          3507 3492 3508 
          3493 3494 3490 
          3523 3522 3491 
          3506 3505 3507 
          2830 3504 3505 
          3501 3493 3503 
          2831 2447 2832 
          2832 2529 2833 
          2447 2448 2832 
          2832 2448 2529 
          3483 3484 3485 
          2835 2529 2836 
          2529 2531 2836 
          2836 2531 2527 
          3486 3438 3484 
          3499 3500 3436 
          2837 3436 3438 
          3499 3489 3498 
          3486 3480 3487 
          3530 3529 3488 
          3530 3479 3531 
          3480 3481 3477 
          3536 3535 3478 
          3531 3532 3431 
          3535 3427 3533 
          2840 3533 3532 
          3427 3428 3429 
          2842 1754 2843 
          1754 1794 2843 
          2843 1794 1752 
          3538 3539 3428 
          3542 3424 3540 
          2844 3540 3539 
          3537 3466 3538 
          3467 3468 3464 
          3543 3542 3465 
          3482 3476 3481 
          3473 3467 3474 
          3537 3536 3475 
          3473 3441 3471 
          3482 3483 3439 
          2847 3439 3441 
          3470 3471 3472 
          2848 2527 2850 
          2527 2528 2850 
          2850 2528 2494 
          3457 3458 3459 
          2852 2494 2853 
          2494 2495 2853 
          2853 2495 2488 
          3460 3444 3458 
          3469 3470 3442 
          2854 3442 3444 
          3469 3463 3468 
          3460 3451 3461 
          3544 3543 3462 
          3544 3450 3545 
          3451 3452 3448 
          3550 3549 3449 
          3545 3546 3425 
          3549 3422 3547 
          2857 3547 3546 
          3422 3421 3423 
          2859 1756 2860 
          1756 1792 2860 
          2860 1792 1755 
          3420 3419 3421 
          3556 3557 3417 
          2861 3417 3419 
          3551 3552 3420 
          3568 3567 3553 
          3555 3556 3554 
          3453 3447 3452 
          3569 3568 3445 
          3551 3550 3446 
          3569 3456 3570 
          3453 3457 3454 
          2864 3454 3456 
          3571 3570 3572 
          2865 2488 2867 
          2488 2491 2867 
          2867 2491 2048 
          2868 2048 2869 
          2869 2137 2870 
          2048 2049 2869 
          2869 2049 2137 
          3571 3573 3566 
          2866 3574 3573 
          3411 3576 3575 
          3566 3565 3567 
          3576 3577 3564 
          3561 3555 3563 
          3561 3562 3560 
          3577 3578 3579 
          3581 3582 3580 
          3560 3416 3558 
          3582 3583 3414 
          2874 3414 3416 
          3583 3584 3585 
          2876 1758 2877 
          1758 1781 2877 
          2877 1781 1757 
          3586 3410 3584 
          3605 3606 3408 
          2878 3408 3410 
          3587 3588 3586 
          3600 3601 3602 
          3604 3605 3603 
          3592 3591 3578 
          3599 3600 3590 
          3587 3581 3589 
          3599 3595 3597 
          3592 3413 3593 
          2881 3593 3595 
          3596 3597 3598 
          2882 2137 2884 
          2137 2138 2884 
          2884 2138 2136 
          3619 3620 3621 
          2886 2136 2887 
          2136 2168 2887 
          2887 2168 2135 
          3622 3618 3620 
          3615 3596 3616 
          2888 3616 3618 
          3615 3614 3601 
          3622 3623 3613 
          3610 3604 3612 
          3610 3611 3609 
          3623 3624 3625 
          3627 3628 3626 
          3609 3407 3607 
          3628 3629 3405 
          2891 3405 3407 
          3629 3630 3631 
          2893 1760 2894 
          1760 1776 2894 
          2894 1776 1759 
          3632 3404 3630 
          3651 3652 3402 
          2895 3402 3404 
          3633 3634 3632 
          3646 3647 3648 
          3650 3651 3649 
          3638 3637 3624 
          3645 3646 3636 
          3633 3627 3635 
          3645 3641 3643 
          3638 3619 3639 
          2898 3639 3641 
          3642 3643 3644 
          2899 2135 2901 
          2135 2172 2901 
          2901 2172 2134 
          4057 4058 4059 
          2903 2133 2904 
          2133 2174 2904 
          2904 2174 2132 
          4026 4032 4033 
          4028 4029 4030 
          4038 4037 4031 
          3708 3709 3710 
          2909 2093 2910 
          2093 2098 2910 
          2910 2098 1853 
          4005 4007 3758 
          3752 3753 3754 
          3750 4009 4008 
          3765 3766 3767 
          2915 1897 2916 
          1897 1898 2916 
          2916 1898 1891 
          3927 3933 3934 
          3929 3930 3931 
          3939 3938 3932 
          3907 3888 3908 
          3889 3890 3886 
          3913 3912 3887 
          3871 3877 3878 
          3873 3874 3875 
          3883 3882 3876 
          3845 3851 3852 
          3847 3848 3849 
          3857 3856 3850 
          3799 3800 3801 
          2930 1144 2931 
          1144 1147 2931 
          2931 1147 1140 
          3839 3840 3800 
          3843 3796 3841 
          2932 3841 3840 
          3796 3797 3798 
          2934 1148 2935 
          1148 1149 2935 
          2935 1149 1144 
          3852 3853 3797 
          3856 3793 3854 
          2928 3854 3853 
          3793 3794 3795 
          2937 1150 2938 
          1150 1273 2938 
          2938 1273 1148 
          3865 3866 3794 
          3869 3790 3867 
          2939 3867 3866 
          3790 3791 3792 
          2941 1151 2942 
          1151 1272 2942 
          2942 1272 1150 
          3878 3879 3791 
          3882 3787 3880 
          2925 3880 3879 
          3787 3788 3789 
          2944 1152 2945 
          1152 1271 2945 
          2945 1271 1151 
          3901 3902 3788 
          3905 3784 3903 
          2946 3903 3902 
          3784 3785 3786 
          2948 1153 2949 
          1153 1268 2949 
          2949 1268 1152 
          3908 3909 3785 
          3912 3781 3910 
          2922 3910 3909 
          3781 3782 3783 
          2951 1154 2952 
          1154 1217 2952 
          2952 1217 1153 
          3921 3922 3782 
          3925 3778 3923 
          2953 3923 3922 
          3778 3779 3780 
          2955 1155 2956 
          1155 1213 2956 
          2956 1213 1154 
          3934 3935 3779 
          3938 3776 3936 
          2919 3936 3935 
          3776 3775 3777 
          2958 1156 2959 
          1156 1212 2959 
          2959 1212 1155 
          3774 3773 3775 
          3953 3954 3771 
          2960 3771 3773 
          2962 1098 2963 
          2963 1156 2961 
          1098 1099 2963 
          2963 1099 1156 
          3768 3959 3960 
          2964 3958 3959 
          3955 3952 3957 
          3768 3769 3770 
          2966 1891 2967 
          1891 1894 2967 
          2967 1894 1098 
          3979 3980 3769 
          3983 3765 3981 
          2968 3981 3980 
          3962 3978 3979 
          3975 3974 3976 
          3984 3983 3977 
          3973 3972 3974 
          3969 3967 3970 
          3985 3984 3971 
          3985 3966 3986 
          3967 3968 3964 
          3991 3990 3965 
          3986 3987 3766 
          3990 3762 3988 
          2974 3988 3987 
          3762 3763 3764 
          2976 1927 2977 
          1927 1928 2977 
          2977 1928 1897 
          3999 4000 3763 
          4003 3760 4001 
          2978 4001 4000 
          3760 3759 3761 
          2980 1929 2981 
          1929 1931 2981 
          2981 1931 1927 
          3758 3757 3759 
          4009 4010 3755 
          2913 3755 3757 
          2983 1853 2984 
          2984 1929 2982 
          1853 1854 2984 
          2984 1854 1929 
          3708 4015 4016 
          2908 4014 4015 
          4011 3724 4013 
          3722 3723 3724 
          3727 3728 3725 
          4017 4016 3726 
          3744 3743 3729 
          3714 3715 3716 
          3740 3733 3742 
          4017 3732 4018 
          3728 3729 3730 
          3733 3734 3731 
          4018 3737 4019 
          3734 3738 3735 
          4024 4023 3736 
          4019 4020 3709 
          4023 3705 4021 
          2993 4021 4020 
          3705 3706 3707 
          2995 2099 2996 
          2099 2100 2996 
          2996 2100 2093 
          4033 4034 3706 
          4037 3702 4035 
          2907 4035 4034 
          3702 3703 3704 
          2998 2130 2999 
          2130 2131 2999 
          2999 2131 2099 
          4046 4047 3703 
          4050 3700 4048 
          3000 4048 4047 
          3700 3699 3701 
          3002 2132 3003 
          2132 2176 3003 
          3003 2176 2130 
          3698 3697 3699 
          4056 4057 3695 
          3004 3695 3697 
          4052 4054 3698 
          3692 3693 3694 
          3690 4056 4055 
          4069 4068 3693 
          4066 4063 4067 
          3689 3690 3691 
          3684 3685 3683 
          4060 3689 4061 
          4063 4064 4062 
          4060 3688 4058 
          3684 3677 3686 
          3009 3686 3688 
          3677 3678 3679 
          3012 2134 3013 
          2134 2173 3013 
          3013 2173 2133 
          3680 3676 3678 
          3673 3642 3674 
          3014 3674 3676 
          3673 3672 3647 
          3680 3681 3671 
          3669 3650 3670 
          3669 3668 3655 
          3681 3682 3667 
          3665 3660 3666 
          3665 3395 3664 
          3682 3683 3393 
          4064 4065 3394 
          3664 3398 3663 
          4065 4066 3396 
          4069 4070 3397 
          3663 3401 3661 
          4070 4071 3399 
          3018 3399 3401 
          4071 4072 4073 
          3020 1604 3021 
          1604 1605 3021 
          3021 1605 1598 
          4074 3392 4072 
          4077 4078 3390 
          3022 3390 3392 
          4077 4076 4042 
          4074 3692 4075 
          4052 4051 4053 
          4039 4045 4046 
          4041 4042 4043 
          4051 4050 4044 
          4084 4083 4029 
          4081 4041 4082 
          4039 4038 4040 
          4081 3389 4079 
          4084 4085 3387 
          3025 3387 3389 
          4085 4086 4087 
          3027 1617 3028 
          1617 1641 3028 
          3028 1641 1615 
          4088 3386 4086 
          4091 4092 3384 
          3029 3384 3386 
          4091 4090 3718 
          4088 4028 4089 
          4026 4025 4027 
          3739 3721 3738 
          3717 3718 3719 
          4025 4024 3720 
          4098 4097 3715 
          4095 3717 4096 
          3739 3740 3741 
          4095 3383 4093 
          4098 4099 3381 
          3032 3381 3383 
          4099 4100 4101 
          3034 1619 3035 
          1619 1638 3035 
          3035 1638 1618 
          4102 3380 4100 
          4105 4106 3378 
          3036 3378 3380 
          4105 4104 3712 
          4102 3714 4103 
          3744 3745 3746 
          3749 3748 3722 
          3711 3712 3713 
          3745 3727 3747 
          4112 4111 3753 
          4109 3711 4110 
          3749 3750 3751 
          4109 3377 4107 
          4112 4113 3375 
          3039 3375 3377 
          4113 4114 4115 
          3041 1621 3042 
          1621 1633 3042 
          3042 1633 1620 
          4116 3374 4114 
          4119 4120 3372 
          3043 3372 3374 
          4119 4118 3995 
          4116 3752 4117 
          4005 4004 4006 
          3992 3998 3999 
          3994 3995 3996 
          4004 4003 3997 
          4126 4125 3968 
          4123 3994 4124 
          3992 3991 3993 
          4123 3371 4121 
          4126 4127 3369 
          3046 3369 3371 
          3048 1492 3049 
          3049 1622 3047 
          1492 1491 3049 
          3049 1491 1622 
          4133 4132 3973 
          3050 4131 4132 
          4128 3969 4130 
          4133 4134 4135 
          3051 1495 3052 
          1495 1498 3052 
          3052 1498 1492 
          4136 3368 4134 
          4139 4140 3366 
          3053 3366 3368 
          4139 4138 3947 
          4136 3975 4137 
          3962 3961 3963 
          3951 3950 3952 
          3946 3947 3948 
          3961 3960 3949 
          3940 3942 3774 
          3945 3946 3943 
          3951 3953 3944 
          4146 4145 3930 
          4143 3945 4144 
          3940 3939 3941 
          4143 3365 4141 
          4146 4147 3363 
          3057 3363 3365 
          4147 4148 4149 
          3059 1514 3060 
          1514 1515 3060 
          3060 1515 1501 
          4150 3362 4148 
          4153 4154 3360 
          3061 3360 3362 
          4153 4152 3917 
          4150 3929 4151 
          3927 3926 3928 
          3914 3920 3921 
          3916 3917 3918 
          3926 3925 3919 
          4160 4159 3890 
          4157 3916 4158 
          3914 3913 3915 
          4157 3359 4155 
          4160 4161 3357 
          3064 3357 3359 
          3066 847 3067 
          3067 1516 3065 
          847 846 3067 
          3067 846 1516 
          4167 4166 3895 
          2777 4165 4166 
          4162 3891 4164 
          3895 3894 3896 
          3891 3889 3892 
          3907 3906 3893 
          3884 3900 3901 
          3897 3896 3898 
          3906 3905 3899 
          4173 4172 3874 
          4170 3897 4171 
          3884 3883 3885 
          4170 3356 4168 
          4173 4174 3354 
          3071 3354 3356 
          4174 4175 4176 
          3073 864 3074 
          864 868 3074 
          3074 868 861 
          4177 3353 4175 
          4180 4181 3351 
          3075 3351 3353 
          4180 4179 3861 
          4177 3873 4178 
          3871 3870 3872 
          3858 3864 3865 
          3860 3861 3862 
          3870 3869 3863 
          4187 4186 3848 
          4184 3860 4185 
          3858 3857 3859 
          4184 3350 4182 
          4187 4188 3348 
          3078 3348 3350 
          4188 4189 4190 
          3080 871 3081 
          871 931 3081 
          3081 931 869 
          4191 3347 4189 
          4194 4195 3345 
          3082 3345 3347 
          4194 4193 3835 
          4191 3847 4192 
          3845 3844 3846 
          3832 3838 3839 
          3834 3835 3836 
          3844 3843 3837 
          4201 4200 3822 
          4198 3834 4199 
          3832 3831 3833 
          4198 3344 4196 
          4201 4202 3342 
          3085 3342 3344 
          4202 4203 4204 
          3088 873 3089 
          873 929 3089 
          3089 929 872 
          4205 3341 4203 
          4208 4209 3339 
          3090 3339 3341 
          4208 4207 3808 
          4205 3821 4206 
          3819 3818 3820 
          3819 3825 3826 
          3821 3822 3823 
          3831 3830 3824 
          3826 3827 3803 
          3830 3799 3828 
          3092 3828 3827 
          3802 3803 3804 
          3093 1140 3095 
          1140 1146 3095 
          3095 1146 45 
          3802 3805 3806 
          3094 4238 3805 
          4235 3816 4237 
          2764 3096 3098 
          3096 2765 3097 
          3097 2756 3098 
          2755 3099 3101 
          3099 2756 3100 
          3100 2754 3101 
          3102 2665 3103 
          3103 2752 3104 
          2665 254 3103 
          3103 254 2752 
          3105 2751 3106 
          3106 2666 3107 
          2751 255 3106 
          3106 255 2666 
          3108 2741 3109 
          3109 2743 3110 
          2741 2742 3109 
          3109 2742 2743 
          3111 2668 3112 
          3112 2729 3113 
          2668 256 3112 
          3112 256 2729 
          3114 2728 3115 
          3115 2725 3116 
          2728 257 3115 
          3115 257 2725 
          38 3117 3118 
          3117 2727 3116 
          3116 2725 3118 
          3118 2725 3119 
          3119 2724 3120 
          2725 2726 3119 
          3119 2726 2724 
          3121 2669 3122 
          3122 2671 3123 
          2669 2670 3122 
          3122 2670 2671 
          3124 2708 3125 
          3125 2707 3126 
          2708 2709 3125 
          3125 2709 2707 
          3127 2672 3128 
          3128 2674 3129 
          2672 2673 3128 
          3128 2673 2674 
          3130 2691 3131 
          3131 2690 3132 
          2691 2692 3131 
          3131 2692 2690 
          3133 2675 3134 
          3134 2677 3135 
          2675 2676 3134 
          3134 2676 2677 
          3136 33 3135 
          3135 2677 3137 
          2677 2679 3137 
          3137 2679 2678 
          3138 33 3136 
          3136 2678 3139 
          2678 2681 3139 
          3139 2681 2680 
          3140 32 3141 
          3141 2685 3142 
          2685 2686 3142 
          3142 2686 2683 
          3143 32 3140 
          3140 2683 3144 
          2683 2684 3144 
          3144 2684 2682 
          3145 31 3146 
          3146 2697 3147 
          2697 2699 3147 
          3147 2699 2698 
          3148 30 3149 
          3149 2701 3150 
          2701 2702 3150 
          3150 2702 2700 
          3151 29 3152 
          3152 2714 3153 
          2714 2716 3153 
          3153 2716 2715 
          3154 28 3155 
          3155 2718 3156 
          2718 2719 3156 
          3156 2719 2717 
          3157 2717 3158 
          3158 2738 3159 
          2717 141 3158 
          3158 141 2738 
          2737 3160 3157 
          3160 28 3154 
          3154 2717 3157 
          2737 3161 3163 
          3161 2736 3162 
          3162 2722 3163 
          28 3160 3164 
          3160 2737 3163 
          3163 2722 3164 
          2721 3165 3167 
          3165 2722 3166 
          3166 2723 3167 
          2721 3168 3165 
          3168 28 3164 
          3164 2722 3165 
          2720 3169 3171 
          3169 2721 3170 
          3170 2712 3171 
          2720 3172 3169 
          3172 28 3168 
          3168 2721 3169 
          28 3172 3155 
          3172 2720 3173 
          3173 2718 3155 
          3174 2715 3175 
          3175 2718 3173 
          2715 151 3175 
          3175 151 2718 
          2720 3176 3174 
          3176 29 3151 
          3151 2715 3174 
          29 3176 3177 
          3176 2720 3171 
          3171 2712 3177 
          2711 3178 3180 
          3178 2712 3179 
          3179 2710 3180 
          2711 3181 3178 
          3181 29 3177 
          3177 2712 3178 
          2713 3182 3184 
          3182 2711 3183 
          3183 2705 3184 
          2713 3185 3182 
          3185 29 3181 
          3181 2711 3182 
          29 3185 3152 
          3185 2713 3186 
          3186 2714 3152 
          3187 2700 3188 
          3188 2714 3186 
          2700 167 3188 
          3188 167 2714 
          2713 3189 3187 
          3189 30 3148 
          3148 2700 3187 
          30 3189 3190 
          3189 2713 3184 
          3184 2705 3190 
          2704 3191 3193 
          3191 2705 3192 
          3192 2706 3193 
          2704 3194 3191 
          3194 30 3190 
          3190 2705 3191 
          2703 3195 3197 
          3195 2704 3196 
          3196 2695 3197 
          2703 3198 3195 
          3198 30 3194 
          3194 2704 3195 
          30 3198 3149 
          3198 2703 3199 
          3199 2701 3149 
          3200 2698 3201 
          3201 2701 3199 
          2698 169 3201 
          3201 169 2701 
          2703 3202 3200 
          3202 31 3145 
          3145 2698 3200 
          31 3202 3203 
          3202 2703 3197 
          3197 2695 3203 
          2694 3204 3206 
          3204 2695 3205 
          3205 2693 3206 
          2694 3207 3204 
          3207 31 3203 
          3203 2695 3204 
          2696 3208 3210 
          3208 2694 3209 
          3209 2688 3210 
          2696 3211 3208 
          3211 31 3207 
          3207 2694 3208 
          31 3211 3146 
          3211 2696 3212 
          3212 2697 3146 
          3213 2682 3214 
          3214 2697 3212 
          2682 170 3214 
          3214 170 2697 
          2696 3215 3213 
          3215 32 3143 
          3143 2682 3213 
          32 3215 3216 
          3215 2696 3210 
          3210 2688 3216 
          2687 3217 3219 
          3217 2688 3218 
          3218 2689 3219 
          2687 3220 3217 
          3220 32 3216 
          3216 2688 3217 
          32 3220 3141 
          3220 2687 3221 
          3221 2685 3141 
          3222 2680 3223 
          3223 2685 3221 
          2680 604 3223 
          3223 604 2685 
          2687 3224 3222 
          3224 33 3138 
          3138 2680 3222 
          33 3224 3225 
          3224 2687 3219 
          3219 2689 3225 
          33 3225 3133 
          3225 2689 3226 
          3226 2675 3133 
          3227 2690 3228 
          3228 2675 3226 
          2690 262 3228 
          3228 262 2675 
          2689 3229 3227 
          3229 34 3132 
          3132 2690 3227 
          2688 3230 3218 
          3230 34 3229 
          3229 2689 3218 
          2694 3231 3209 
          3231 34 3230 
          3230 2688 3209 
          34 3231 3232 
          3231 2694 3206 
          3206 2693 3232 
          34 3232 3130 
          3232 2693 3233 
          3233 2691 3130 
          3234 2674 3235 
          3235 2691 3233 
          2674 261 3235 
          3235 261 2691 
          2693 3236 3234 
          3236 35 3129 
          3129 2674 3234 
          2695 3237 3205 
          3237 35 3236 
          3236 2693 3205 
          2704 3238 3196 
          3238 35 3237 
          3237 2695 3196 
          35 3238 3239 
          3238 2704 3193 
          3193 2706 3239 
          35 3239 3127 
          3239 2706 3240 
          3240 2672 3127 
          3241 2707 3242 
          3242 2672 3240 
          2707 260 3242 
          3242 260 2672 
          2706 3243 3241 
          3243 36 3126 
          3126 2707 3241 
          2705 3244 3192 
          3244 36 3243 
          3243 2706 3192 
          2711 3245 3183 
          3245 36 3244 
          3244 2705 3183 
          36 3245 3246 
          3245 2711 3180 
          3180 2710 3246 
          36 3246 3124 
          3246 2710 3247 
          3247 2708 3124 
          3248 2671 3249 
          3249 2708 3247 
          2671 259 3249 
          3249 259 2708 
          2710 3250 3248 
          3250 37 3123 
          3123 2671 3248 
          2712 3251 3179 
          3251 37 3250 
          3250 2710 3179 
          2721 3252 3170 
          3252 37 3251 
          3251 2712 3170 
          37 3252 3253 
          3252 2721 3167 
          3167 2723 3253 
          37 3253 3121 
          3253 2723 3254 
          3254 2669 3121 
          3255 2724 3256 
          3256 2669 3254 
          2724 258 3256 
          3256 258 2669 
          2723 3257 3255 
          3257 38 3120 
          3120 2724 3255 
          2722 3258 3166 
          3258 38 3257 
          3257 2723 3166 
          2736 3259 3162 
          3259 38 3258 
          3258 2722 3162 
          38 3259 3117 
          3259 2736 3260 
          3260 2727 3117 
          2736 3261 3260 
          3261 2735 3262 
          3262 2727 3260 
          2735 3263 3262 
          3263 39 3264 
          3264 2727 3262 
          2727 3264 3114 
          3264 39 3265 
          3265 2728 3114 
          3266 2729 3267 
          3267 2728 3265 
          2729 2730 3267 
          3267 2730 2728 
          39 3268 3266 
          3268 2731 3113 
          3113 2729 3266 
          39 3269 3268 
          3269 2732 3270 
          3270 2731 3268 
          2732 3269 3271 
          3269 39 3263 
          3263 2735 3271 
          2734 3272 3273 
          3272 2732 3271 
          3271 2735 3273 
          27 3274 3275 
          3274 2734 3273 
          3273 2735 3275 
          2736 3276 3261 
          3276 27 3275 
          3275 2735 3261 
          2737 3277 3161 
          3277 27 3276 
          3276 2736 3161 
          27 3277 3278 
          3277 2737 3159 
          3159 2738 3278 
          3279 27 3278 
          3278 2738 3280 
          2738 2740 3280 
          3280 2740 2739 
          27 3279 3274 
          3279 2739 3281 
          3281 2734 3274 
          3282 2741 3283 
          3283 2734 3281 
          2739 26 3282 
          3282 26 2741 
          2741 3108 3283 
          3108 858 3284 
          3284 2734 3283 
          2734 3284 3272 
          3284 858 3285 
          3285 2732 3272 
          2732 3285 3287 
          3285 858 3286 
          3286 2733 3287 
          2732 3287 3270 
          3287 2733 3288 
          3288 2731 3270 
          2733 3289 3288 
          3289 40 3290 
          3290 2731 3288 
          2731 3290 3111 
          3290 40 3291 
          3291 2668 3111 
          3292 2666 3293 
          3293 2668 3291 
          2666 2667 3293 
          3293 2667 2668 
          40 3294 3292 
          3294 2750 3107 
          3107 2666 3292 
          40 3295 3294 
          3295 2748 3296 
          3296 2750 3294 
          2748 3295 3297 
          3295 40 3289 
          3289 2733 3297 
          2747 3298 3299 
          3298 2748 3297 
          3297 2733 3299 
          858 3300 3286 
          3300 2747 3299 
          3299 2733 3286 
          2747 3300 3301 
          3300 858 3110 
          3110 2743 3301 
          3301 2743 3302 
          3302 2745 3303 
          2743 877 3302 
          3302 877 2745 
          3304 857 3305 
          3305 2745 3306 
          2745 2746 3306 
          3306 2746 2744 
          857 3307 3305 
          3307 2747 3303 
          3303 2745 3305 
          2747 3307 3298 
          3307 857 3308 
          3308 2748 3298 
          2748 3308 3310 
          3308 857 3309 
          3309 2749 3310 
          2748 3310 3296 
          3310 2749 3311 
          3311 2750 3296 
          2749 3312 3311 
          3312 41 3313 
          3313 2750 3311 
          2750 3313 3105 
          3313 41 3314 
          3314 2751 3105 
          3315 2752 3316 
          3316 2751 3314 
          2752 2753 3316 
          3316 2753 2751 
          41 3317 3315 
          3317 2754 3104 
          3104 2752 3315 
          41 3318 3317 
          3318 2755 3101 
          3101 2754 3317 
          2755 3318 3319 
          3318 41 3312 
          3312 2749 3319 
          2757 3320 3321 
          3320 2755 3319 
          3319 2749 3321 
          857 3322 3309 
          3322 2757 3321 
          3321 2749 3309 
          2757 3322 3323 
          3322 857 3304 
          3304 2744 3323 
          3323 2744 3324 
          3324 2758 3325 
          2744 876 3324 
          3324 876 2758 
          3326 856 3327 
          3327 2758 3328 
          2758 2760 3328 
          3328 2760 2759 
          856 3329 3327 
          3329 2757 3325 
          3325 2758 3327 
          2757 3329 3320 
          3329 856 3330 
          3330 2755 3320 
          2755 3330 3099 
          3330 856 3331 
          3331 2756 3099 
          856 3332 3331 
          3332 2764 3098 
          3098 2756 3331 
          2764 3332 3333 
          3332 856 3326 
          3326 2759 3333 
          3333 2759 3334 
          3334 2762 3335 
          2759 875 3334 
          3334 875 2762 
          3336 2761 3337 
          3337 2768 3338 
          2761 874 3337 
          3337 874 2768 
          3339 2769 3340 
          3340 3088 3341 
          2769 873 3340 
          3340 873 3088 
          3342 3087 3343 
          3343 2772 3344 
          3087 872 3343 
          3343 872 2772 
          3345 2771 3346 
          3346 3080 3347 
          2771 871 3346 
          3346 871 3080 
          3348 3079 3349 
          3349 2775 3350 
          3079 869 3349 
          3349 869 2775 
          3351 2774 3352 
          3352 3073 3353 
          2774 864 3352 
          3352 864 3073 
          3354 3072 3355 
          3355 2778 3356 
          3072 861 3355 
          3355 861 2778 
          3357 3065 3358 
          3358 2781 3359 
          3065 1516 3358 
          3358 1516 2781 
          3360 2780 3361 
          3361 3059 3362 
          2780 1514 3361 
          3361 1514 3059 
          3363 3058 3364 
          3364 2784 3365 
          3058 1501 3364 
          3364 1501 2784 
          3366 2783 3367 
          3367 3051 3368 
          2783 1495 3367 
          3367 1495 3051 
          3369 3047 3370 
          3370 2787 3371 
          3047 1622 3370 
          3370 1622 2787 
          3372 2786 3373 
          3373 3041 3374 
          2786 1621 3373 
          3373 1621 3041 
          3375 3040 3376 
          3376 2790 3377 
          3040 1620 3376 
          3376 1620 2790 
          3378 2789 3379 
          3379 3034 3380 
          2789 1619 3379 
          3379 1619 3034 
          3381 3033 3382 
          3382 2793 3383 
          3033 1618 3382 
          3382 1618 2793 
          3384 2792 3385 
          3385 3027 3386 
          2792 1617 3385 
          3385 1617 3027 
          3387 3026 3388 
          3388 2796 3389 
          3026 1615 3388 
          3388 1615 2796 
          3390 2795 3391 
          3391 3020 3392 
          2795 1604 3391 
          3391 1604 3020 
          3016 3393 3395 
          3393 3010 3394 
          3394 3017 3395 
          3017 3396 3398 
          3396 3007 3397 
          3397 3018 3398 
          3399 3019 3400 
          3400 2799 3401 
          3019 1598 3400 
          3400 1598 2799 
          3402 2804 3403 
          3403 2893 3404 
          2804 1760 3403 
          3403 1760 2893 
          3405 2892 3406 
          3406 2806 3407 
          2892 1759 3406 
          3406 1759 2806 
          3408 2805 3409 
          3409 2876 3410 
          2805 1758 3409 
          3409 1758 2876 
          3411 2868 3412 
          3412 2870 3413 
          2868 2869 3412 
          3412 2869 2870 
          3414 2875 3415 
          3415 2809 3416 
          2875 1757 3415 
          3415 1757 2809 
          3417 2808 3418 
          3418 2859 3419 
          2808 1756 3418 
          3418 1756 2859 
          1058 3420 3421 
          3420 2861 3419 
          3419 2859 3421 
          3422 1058 3421 
          3421 2859 3423 
          2859 2860 3423 
          3423 2860 2858 
          3424 1059 3425 
          3425 2812 3426 
          2812 2813 3426 
          3426 2813 2811 
          3427 1060 3428 
          3428 2842 3429 
          2842 2843 3429 
          3429 2843 2841 
          3430 1061 3431 
          3431 2815 3432 
          2815 2816 3432 
          3432 2816 2814 
          3433 1062 3434 
          3434 2824 3435 
          2824 2825 3435 
          3435 2825 2823 
          3436 2833 3437 
          3437 2835 3438 
          2833 2529 3437 
          3437 2529 2835 
          3439 2834 3440 
          3440 2848 3441 
          2834 2527 3440 
          3440 2527 2848 
          3442 2849 3443 
          3443 2852 3444 
          2849 2494 3443 
          3443 2494 2852 
          2864 3445 3447 
          3445 2862 3446 
          3446 2856 3447 
          2855 3448 3450 
          3448 2856 3449 
          3449 2857 3450 
          2855 3451 3448 
          3451 1068 3452 
          3452 2856 3448 
          1068 3453 3452 
          3453 2864 3447 
          3447 2856 3452 
          3454 2851 3455 
          3455 2865 3456 
          2851 2488 3455 
          3455 2488 2865 
          2864 3453 3454 
          3453 1068 3457 
          3457 2851 3454 
          3457 1068 3458 
          3458 2852 3459 
          2852 2853 3459 
          3459 2853 2851 
          1068 3460 3458 
          3460 2854 3444 
          3444 2852 3458 
          2854 3460 3461 
          3460 1068 3451 
          3451 2855 3461 
          2854 3461 3463 
          3461 2855 3462 
          3462 2846 3463 
          2845 3464 3466 
          3464 2846 3465 
          3465 2844 3466 
          2845 3467 3464 
          3467 1067 3468 
          3468 2846 3464 
          1067 3469 3468 
          3469 2854 3463 
          3463 2846 3468 
          2854 3469 3442 
          3469 1067 3470 
          3470 2849 3442 
          3470 1067 3471 
          3471 2848 3472 
          2848 2850 3472 
          3472 2850 2849 
          1067 3473 3471 
          3473 2847 3441 
          3441 2848 3471 
          2847 3473 3474 
          3473 1067 3467 
          3467 2845 3474 
          2847 3474 3476 
          3474 2845 3475 
          3475 2839 3476 
          2838 3477 3479 
          3477 2839 3478 
          3478 2840 3479 
          2838 3480 3477 
          3480 1066 3481 
          3481 2839 3477 
          1066 3482 3481 
          3482 2847 3476 
          3476 2839 3481 
          2847 3482 3439 
          3482 1066 3483 
          3483 2834 3439 
          3483 1066 3484 
          3484 2835 3485 
          2835 2836 3485 
          3485 2836 2834 
          1066 3486 3484 
          3486 2837 3438 
          3438 2835 3484 
          2837 3486 3487 
          3486 1066 3480 
          3480 2838 3487 
          2837 3487 3489 
          3487 2838 3488 
          3488 2828 3489 
          2829 3490 3492 
          3490 2827 3491 
          3491 2818 3492 
          2829 3493 3490 
          3493 1065 3494 
          3494 2827 3490 
          2827 3495 3497 
          3495 2828 3496 
          3496 2826 3497 
          2827 3494 3495 
          3494 1065 3498 
          3498 2828 3495 
          1065 3499 3498 
          3499 2837 3489 
          3489 2828 3498 
          2837 3499 3436 
          3499 1065 3500 
          3500 2833 3436 
          3501 2831 3502 
          3502 2833 3500 
          2831 2832 3502 
          3502 2832 2833 
          2831 3501 3503 
          3501 1065 3493 
          3493 2829 3503 
          3504 2831 3503 
          3503 2829 3505 
          2830 2447 3504 
          3504 2447 2831 
          1064 3506 3507 
          3506 2830 3505 
          3505 2829 3507 
          1064 3507 3508 
          3507 2829 3492 
          3492 2818 3508 
          2817 3509 3510 
          3509 1064 3508 
          3508 2818 3510 
          2817 3510 3512 
          3510 2818 3511 
          3511 2819 3512 
          1063 3513 3514 
          3513 2817 3512 
          3512 2819 3514 
          3515 1063 3516 
          3516 2821 3517 
          2821 2822 3517 
          3517 2822 2820 
          1063 3514 3516 
          3514 2819 3518 
          3518 2821 3516 
          3519 2823 3520 
          3520 2821 3518 
          2823 1744 3520 
          3520 1744 2821 
          2819 3521 3519 
          3521 1062 3433 
          3433 2823 3519 
          2818 3522 3511 
          3522 1062 3521 
          3521 2819 3511 
          2827 3523 3491 
          3523 1062 3522 
          3522 2818 3491 
          1062 3523 3524 
          3523 2827 3497 
          3497 2826 3524 
          1062 3524 3434 
          3524 2826 3525 
          3525 2824 3434 
          3526 2814 3527 
          3527 2824 3525 
          2814 1746 3527 
          3527 1746 2824 
          2826 3528 3526 
          3528 1061 3430 
          3430 2814 3526 
          2828 3529 3496 
          3529 1061 3528 
          3528 2826 3496 
          2838 3530 3488 
          3530 1061 3529 
          3529 2828 3488 
          1061 3530 3531 
          3530 2838 3479 
          3479 2840 3531 
          1061 3531 3431 
          3531 2840 3532 
          3532 2815 3431 
          3533 2841 3534 
          3534 2815 3532 
          2841 1752 3534 
          3534 1752 2815 
          2840 3535 3533 
          3535 1060 3427 
          3427 2841 3533 
          2839 3536 3478 
          3536 1060 3535 
          3535 2840 3478 
          2845 3537 3475 
          3537 1060 3536 
          3536 2839 3475 
          1060 3537 3538 
          3537 2845 3466 
          3466 2844 3538 
          1060 3538 3428 
          3538 2844 3539 
          3539 2842 3428 
          3540 2811 3541 
          3541 2842 3539 
          2811 1754 3541 
          3541 1754 2842 
          2844 3542 3540 
          3542 1059 3424 
          3424 2811 3540 
          2846 3543 3465 
          3543 1059 3542 
          3542 2844 3465 
          2855 3544 3462 
          3544 1059 3543 
          3543 2846 3462 
          1059 3544 3545 
          3544 2855 3450 
          3450 2857 3545 
          1059 3545 3425 
          3545 2857 3546 
          3546 2812 3425 
          3547 2858 3548 
          3548 2812 3546 
          2858 1755 3548 
          3548 1755 2812 
          2857 3549 3547 
          3549 1058 3422 
          3422 2858 3547 
          2856 3550 3449 
          3550 1058 3549 
          3549 2857 3449 
          2862 3551 3446 
          3551 1058 3550 
          3550 2856 3446 
          1058 3551 3420 
          3551 2862 3552 
          3552 2861 3420 
          2862 3553 3552 
          3553 2863 3554 
          3554 2861 3552 
          2863 3555 3554 
          3555 1057 3556 
          3556 2861 3554 
          2861 3556 3417 
          3556 1057 3557 
          3557 2808 3417 
          3557 1057 3558 
          3558 2809 3559 
          2809 2810 3559 
          3559 2810 2808 
          1057 3560 3558 
          3560 2874 3416 
          3416 2809 3558 
          1057 3561 3560 
          3561 2872 3562 
          3562 2874 3560 
          2872 3561 3563 
          3561 1057 3555 
          3555 2863 3563 
          2871 3564 3565 
          3564 2872 3563 
          3563 2863 3565 
          1069 3566 3567 
          3566 2871 3565 
          3565 2863 3567 
          2862 3568 3553 
          3568 1069 3567 
          3567 2863 3553 
          2864 3569 3445 
          3569 1069 3568 
          3568 2862 3445 
          1069 3569 3570 
          3569 2864 3456 
          3456 2865 3570 
          3571 1069 3570 
          3570 2865 3572 
          2865 2867 3572 
          3572 2867 2866 
          1069 3571 3566 
          3571 2866 3573 
          3573 2871 3566 
          3574 2868 3575 
          3575 2871 3573 
          2866 2048 3574 
          3574 2048 2868 
          2868 3411 3575 
          3411 1070 3576 
          3576 2871 3575 
          2871 3576 3564 
          3576 1070 3577 
          3577 2872 3564 
          2872 3577 3579 
          3577 1070 3578 
          3578 2873 3579 
          2872 3579 3562 
          3579 2873 3580 
          3580 2874 3562 
          2873 3581 3580 
          3581 1056 3582 
          3582 2874 3580 
          2874 3582 3414 
          3582 1056 3583 
          3583 2875 3414 
          3583 1056 3584 
          3584 2876 3585 
          2876 2877 3585 
          3585 2877 2875 
          1056 3586 3584 
          3586 2878 3410 
          3410 2876 3584 
          1056 3587 3586 
          3587 2879 3588 
          3588 2878 3586 
          2879 3587 3589 
          3587 1056 3581 
          3581 2873 3589 
          2881 3590 3591 
          3590 2879 3589 
          3589 2873 3591 
          1070 3592 3578 
          3592 2881 3591 
          3591 2873 3578 
          2881 3592 3593 
          3592 1070 3413 
          3413 2870 3593 
          3593 2870 3594 
          3594 2882 3595 
          2870 2137 3594 
          3594 2137 2882 
          3596 1071 3597 
          3597 2882 3598 
          2882 2884 3598 
          3598 2884 2883 
          1071 3599 3597 
          3599 2881 3595 
          3595 2882 3597 
          2881 3599 3590 
          3599 1071 3600 
          3600 2879 3590 
          2879 3600 3602 
          3600 1071 3601 
          3601 2880 3602 
          2879 3602 3588 
          3602 2880 3603 
          3603 2878 3588 
          2880 3604 3603 
          3604 1055 3605 
          3605 2878 3603 
          2878 3605 3408 
          3605 1055 3606 
          3606 2805 3408 
          3606 1055 3607 
          3607 2806 3608 
          2806 2807 3608 
          3608 2807 2805 
          1055 3609 3607 
          3609 2891 3407 
          3407 2806 3607 
          1055 3610 3609 
          3610 2889 3611 
          3611 2891 3609 
          2889 3610 3612 
          3610 1055 3604 
          3604 2880 3612 
          2888 3613 3614 
          3613 2889 3612 
          3612 2880 3614 
          1071 3615 3601 
          3615 2888 3614 
          3614 2880 3601 
          2888 3615 3616 
          3615 1071 3596 
          3596 2883 3616 
          3616 2883 3617 
          3617 2886 3618 
          2883 2136 3617 
          3617 2136 2886 
          3619 1072 3620 
          3620 2886 3621 
          2886 2887 3621 
          3621 2887 2885 
          1072 3622 3620 
          3622 2888 3618 
          3618 2886 3620 
          2888 3622 3613 
          3622 1072 3623 
          3623 2889 3613 
          2889 3623 3625 
          3623 1072 3624 
          3624 2890 3625 
          2889 3625 3611 
          3625 2890 3626 
          3626 2891 3611 
          2890 3627 3626 
          3627 1054 3628 
          3628 2891 3626 
          2891 3628 3405 
          3628 1054 3629 
          3629 2892 3405 
          3629 1054 3630 
          3630 2893 3631 
          2893 2894 3631 
          3631 2894 2892 
          1054 3632 3630 
          3632 2895 3404 
          3404 2893 3630 
          1054 3633 3632 
          3633 2896 3634 
          3634 2895 3632 
          2896 3633 3635 
          3633 1054 3627 
          3627 2890 3635 
          2898 3636 3637 
          3636 2896 3635 
          3635 2890 3637 
          1072 3638 3624 
          3638 2898 3637 
          3637 2890 3624 
          2898 3638 3639 
          3638 1072 3619 
          3619 2885 3639 
          3639 2885 3640 
          3640 2899 3641 
          2885 2135 3640 
          3640 2135 2899 
          3642 1073 3643 
          3643 2899 3644 
          2899 2901 3644 
          3644 2901 2900 
          1073 3645 3643 
          3645 2898 3641 
          3641 2899 3643 
          2898 3645 3636 
          3645 1073 3646 
          3646 2896 3636 
          2896 3646 3648 
          3646 1073 3647 
          3647 2897 3648 
          2896 3648 3634 
          3648 2897 3649 
          3649 2895 3634 
          2897 3650 3649 
          3650 1053 3651 
          3651 2895 3649 
          2895 3651 3402 
          3651 1053 3652 
          3652 2804 3402 
          3653 2801 3654 
          3654 2804 3652 
          2801 2803 3654 
          3654 2803 2804 
          2801 3653 3656 
          3653 1053 3655 
          3655 2802 3656 
          3657 2801 3656 
          3656 2802 3658 
          2798 1595 3657 
          3657 1595 2801 
          1052 3659 3660 
          3659 2798 3658 
          3658 2802 3660 
          3659 1052 3661 
          3661 2799 3662 
          2799 2800 3662 
          3662 2800 2798 
          1052 3663 3661 
          3663 3018 3401 
          3401 2799 3661 
          1052 3664 3663 
          3664 3017 3398 
          3398 3018 3663 
          1052 3665 3664 
          3665 3016 3395 
          3395 3017 3664 
          3016 3665 3666 
          3665 1052 3660 
          3660 2802 3666 
          3015 3667 3668 
          3667 3016 3666 
          3666 2802 3668 
          1053 3669 3655 
          3669 3015 3668 
          3668 2802 3655 
          3015 3669 3670 
          3669 1053 3650 
          3650 2897 3670 
          3014 3671 3672 
          3671 3015 3670 
          3670 2897 3672 
          1073 3673 3647 
          3673 3014 3672 
          3672 2897 3647 
          3014 3673 3674 
          3673 1073 3642 
          3642 2900 3674 
          3674 2900 3675 
          3675 3012 3676 
          2900 2134 3675 
          3675 2134 3012 
          3677 1074 3678 
          3678 3012 3679 
          3012 3013 3679 
          3679 3013 3011 
          1074 3680 3678 
          3680 3014 3676 
          3676 3012 3678 
          3014 3680 3671 
          3680 1074 3681 
          3681 3015 3671 
          3015 3681 3667 
          3681 1074 3682 
          3682 3016 3667 
          3016 3682 3393 
          3682 1074 3683 
          3683 3010 3393 
          1074 3684 3683 
          3684 3009 3685 
          3685 3010 3683 
          3009 3684 3686 
          3684 1074 3677 
          3677 3011 3686 
          3686 3011 3687 
          3687 2903 3688 
          3011 2133 3687 
          3687 2133 2903 
          3008 3689 3691 
          3689 1075 3690 
          3690 3006 3691 
          3005 3692 3694 
          3692 1051 3693 
          3693 3006 3694 
          3695 2902 3696 
          3696 3002 3697 
          2902 2132 3696 
          3696 2132 3002 
          1076 3698 3699 
          3698 3004 3697 
          3697 3002 3699 
          3700 1076 3699 
          3699 3002 3701 
          3002 3003 3701 
          3701 3003 3001 
          3702 1077 3703 
          3703 2998 3704 
          2998 2999 3704 
          3704 2999 2997 
          3705 1078 3706 
          3706 2995 3707 
          2995 2996 3707 
          3707 2996 2994 
          3708 1079 3709 
          3709 2909 3710 
          2909 2910 3710 
          3710 2910 2908 
          3038 3711 3713 
          3711 1046 3712 
          3712 3037 3713 
          2988 3714 3716 
          3714 1047 3715 
          3715 2989 3716 
          3031 3717 3719 
          3717 1048 3718 
          3718 3030 3719 
          3031 3719 3721 
          3719 3030 3720 
          3720 2992 3721 
          1080 3722 3724 
          3722 2986 3723 
          3723 2985 3724 
          2986 3725 3723 
          3725 2987 3726 
          3726 2985 3723 
          2986 3727 3725 
          3727 1095 3728 
          3728 2987 3725 
          2987 3728 3730 
          3728 1095 3729 
          3729 2990 3730 
          2987 3730 3732 
          3730 2990 3731 
          3731 2991 3732 
          2990 3733 3731 
          3733 1097 3734 
          3734 2991 3731 
          2991 3735 3737 
          3735 2992 3736 
          3736 2993 3737 
          2991 3734 3735 
          3734 1097 3738 
          3738 2992 3735 
          1097 3739 3738 
          3739 3031 3721 
          3721 2992 3738 
          3031 3739 3741 
          3739 1097 3740 
          3740 2989 3741 
          2989 3740 3742 
          3740 1097 3733 
          3733 2990 3742 
          2988 3716 3743 
          3716 2989 3742 
          3742 2990 3743 
          1095 3744 3729 
          3744 2988 3743 
          3743 2990 3729 
          2988 3744 3746 
          3744 1095 3745 
          3745 3037 3746 
          3037 3745 3747 
          3745 1095 3727 
          3727 2986 3747 
          3038 3713 3748 
          3713 3037 3747 
          3747 2986 3748 
          1080 3749 3722 
          3749 3038 3748 
          3748 2986 3722 
          3038 3749 3751 
          3749 1080 3750 
          3750 2912 3751 
          2911 3752 3754 
          3752 1045 3753 
          3753 2912 3754 
          3755 2982 3756 
          3756 2980 3757 
          2982 1929 3756 
          3756 1929 2980 
          1081 3758 3759 
          3758 2913 3757 
          3757 2980 3759 
          3760 1081 3759 
          3759 2980 3761 
          2980 2981 3761 
          3761 2981 2979 
          3762 1082 3763 
          3763 2976 3764 
          2976 2977 3764 
          3764 2977 2975 
          3765 1083 3766 
          3766 2915 3767 
          2915 2916 3767 
          3767 2916 2914 
          3768 1084 3769 
          3769 2966 3770 
          2966 2967 3770 
          3770 2967 2964 
          3771 2961 3772 
          3772 2958 3773 
          2961 1156 3772 
          3772 1156 2958 
          1086 3774 3775 
          3774 2960 3773 
          3773 2958 3775 
          3776 1086 3775 
          3775 2958 3777 
          2958 2959 3777 
          3777 2959 2957 
          3778 1087 3779 
          3779 2955 3780 
          2955 2956 3780 
          3780 2956 2954 
          3781 1088 3782 
          3782 2951 3783 
          2951 2952 3783 
          3783 2952 2950 
          3784 1089 3785 
          3785 2948 3786 
          2948 2949 3786 
          3786 2949 2947 
          3787 1090 3788 
          3788 2944 3789 
          2944 2945 3789 
          3789 2945 2943 
          3790 1091 3791 
          3791 2941 3792 
          2941 2942 3792 
          3792 2942 2940 
          3793 1092 3794 
          3794 2937 3795 
          2937 2938 3795 
          3795 2938 2936 
          3796 1093 3797 
          3797 2934 3798 
          2934 2935 3798 
          3798 2935 2933 
          3799 1094 3800 
          3800 2930 3801 
          2930 2931 3801 
          3801 2931 2929 
          3802 44 3803 
          3803 3093 3804 
          3093 3095 3804 
          3804 3095 3094 
          44 3802 3806 
          3802 3094 3805 
          3805 2658 3806 
          2656 3807 3809 
          3807 854 3808 
          3808 2657 3809 
          2766 3810 3812 
          3810 43 3811 
          3811 2663 3812 
          2656 3813 3814 
          3813 43 3810 
          3810 2766 3814 
          43 3813 3816 
          3813 2656 3815 
          3815 2658 3816 
          2656 3809 3815 
          3809 2657 3817 
          3817 2658 3815 
          2657 3818 3817 
          3818 44 3806 
          3806 2658 3817 
          3091 3819 3820 
          3819 44 3818 
          3818 2657 3820 
          3091 3821 3823 
          3821 853 3822 
          3822 3086 3823 
          3091 3823 3825 
          3823 3086 3824 
          3824 3092 3825 
          44 3819 3826 
          3819 3091 3825 
          3825 3092 3826 
          44 3826 3803 
          3826 3092 3827 
          3827 3093 3803 
          3828 2929 3829 
          3829 3093 3827 
          2929 1140 3829 
          3829 1140 3093 
          3092 3830 3828 
          3830 1094 3799 
          3799 2929 3828 
          3086 3831 3824 
          3831 1094 3830 
          3830 3092 3824 
          3084 3832 3833 
          3832 1094 3831 
          3831 3086 3833 
          3084 3834 3836 
          3834 852 3835 
          3835 3083 3836 
          3084 3836 3838 
          3836 3083 3837 
          3837 2932 3838 
          1094 3832 3839 
          3832 3084 3838 
          3838 2932 3839 
          1094 3839 3800 
          3839 2932 3840 
          3840 2930 3800 
          3841 2933 3842 
          3842 2930 3840 
          2933 1144 3842 
          3842 1144 2930 
          2932 3843 3841 
          3843 1093 3796 
          3796 2933 3841 
          3083 3844 3837 
          3844 1093 3843 
          3843 2932 3837 
          2926 3845 3846 
          3845 1093 3844 
          3844 3083 3846 
          2926 3847 3849 
          3847 851 3848 
          3848 2927 3849 
          2926 3849 3851 
          3849 2927 3850 
          3850 2928 3851 
          1093 3845 3852 
          3845 2926 3851 
          3851 2928 3852 
          1093 3852 3797 
          3852 2928 3853 
          3853 2934 3797 
          3854 2936 3855 
          3855 2934 3853 
          2936 1148 3855 
          3855 1148 2934 
          2928 3856 3854 
          3856 1092 3793 
          3793 2936 3854 
          2927 3857 3850 
          3857 1092 3856 
          3856 2928 3850 
          3077 3858 3859 
          3858 1092 3857 
          3857 2927 3859 
          3077 3860 3862 
          3860 850 3861 
          3861 3076 3862 
          3077 3862 3864 
          3862 3076 3863 
          3863 2939 3864 
          1092 3858 3865 
          3858 3077 3864 
          3864 2939 3865 
          1092 3865 3794 
          3865 2939 3866 
          3866 2937 3794 
          3867 2940 3868 
          3868 2937 3866 
          2940 1150 3868 
          3868 1150 2937 
          2939 3869 3867 
          3869 1091 3790 
          3790 2940 3867 
          3076 3870 3863 
          3870 1091 3869 
          3869 2939 3863 
          2923 3871 3872 
          3871 1091 3870 
          3870 3076 3872 
          2923 3873 3875 
          3873 849 3874 
          3874 2924 3875 
          2923 3875 3877 
          3875 2924 3876 
          3876 2925 3877 
          1091 3871 3878 
          3871 2923 3877 
          3877 2925 3878 
          1091 3878 3791 
          3878 2925 3879 
          3879 2941 3791 
          3880 2943 3881 
          3881 2941 3879 
          2943 1151 3881 
          3881 1151 2941 
          2925 3882 3880 
          3882 1090 3787 
          3787 2943 3880 
          2924 3883 3876 
          3883 1090 3882 
          3882 2925 3876 
          3070 3884 3885 
          3884 1090 3883 
          3883 2924 3885 
          2920 3886 3888 
          3886 2921 3887 
          3887 2922 3888 
          2920 3889 3886 
          3889 1038 3890 
          3890 2921 3886 
          3068 3891 3892 
          3891 1038 3889 
          3889 2920 3892 
          3068 3892 3894 
          3892 2920 3893 
          3893 3069 3894 
          848 3895 3896 
          3895 3068 3894 
          3894 3069 3896 
          3070 3897 3898 
          3897 848 3896 
          3896 3069 3898 
          3070 3898 3900 
          3898 3069 3899 
          3899 2946 3900 
          1090 3884 3901 
          3884 3070 3900 
          3900 2946 3901 
          1090 3901 3788 
          3901 2946 3902 
          3902 2944 3788 
          3903 2947 3904 
          3904 2944 3902 
          2947 1152 3904 
          3904 1152 2944 
          2946 3905 3903 
          3905 1089 3784 
          3784 2947 3903 
          3069 3906 3899 
          3906 1089 3905 
          3905 2946 3899 
          2920 3907 3893 
          3907 1089 3906 
          3906 3069 3893 
          1089 3907 3908 
          3907 2920 3888 
          3888 2922 3908 
          1089 3908 3785 
          3908 2922 3909 
          3909 2948 3785 
          3910 2950 3911 
          3911 2948 3909 
          2950 1153 3911 
          3911 1153 2948 
          2922 3912 3910 
          3912 1088 3781 
          3781 2950 3910 
          2921 3913 3887 
          3913 1088 3912 
          3912 2922 3887 
          3063 3914 3915 
          3914 1088 3913 
          3913 2921 3915 
          3063 3916 3918 
          3916 1039 3917 
          3917 3062 3918 
          3063 3918 3920 
          3918 3062 3919 
          3919 2953 3920 
          1088 3914 3921 
          3914 3063 3920 
          3920 2953 3921 
          1088 3921 3782 
          3921 2953 3922 
          3922 2951 3782 
          3923 2954 3924 
          3924 2951 3922 
          2954 1154 3924 
          3924 1154 2951 
          2953 3925 3923 
          3925 1087 3778 
          3778 2954 3923 
          3062 3926 3919 
          3926 1087 3925 
          3925 2953 3919 
          2917 3927 3928 
          3927 1087 3926 
          3926 3062 3928 
          2917 3929 3931 
          3929 1040 3930 
          3930 2918 3931 
          2917 3931 3933 
          3931 2918 3932 
          3932 2919 3933 
          1087 3927 3934 
          3927 2917 3933 
          3933 2919 3934 
          1087 3934 3779 
          3934 2919 3935 
          3935 2955 3779 
          3936 2957 3937 
          3937 2955 3935 
          2957 1155 3937 
          3937 1155 2955 
          2919 3938 3936 
          3938 1086 3776 
          3776 2957 3936 
          2918 3939 3932 
          3939 1086 3938 
          3938 2919 3932 
          3056 3940 3941 
          3940 1086 3939 
          3939 2918 3941 
          1086 3940 3774 
          3940 3056 3942 
          3942 2960 3774 
          3056 3943 3942 
          3943 3055 3944 
          3944 2960 3942 
          3056 3945 3943 
          3945 1041 3946 
          3946 3055 3943 
          3055 3946 3948 
          3946 1041 3947 
          3947 3054 3948 
          3055 3948 3950 
          3948 3054 3949 
          3949 2965 3950 
          1085 3951 3952 
          3951 3055 3950 
          3950 2965 3952 
          3055 3951 3944 
          3951 1085 3953 
          3953 2960 3944 
          2960 3953 3771 
          3953 1085 3954 
          3954 2961 3771 
          3955 2962 3956 
          3956 2961 3954 
          2962 2963 3956 
          3956 2963 2961 
          2962 3955 3957 
          3955 1085 3952 
          3952 2965 3957 
          3958 2962 3957 
          3957 2965 3959 
          2964 1098 3958 
          3958 1098 2962 
          1084 3768 3960 
          3768 2964 3959 
          3959 2965 3960 
          3054 3961 3949 
          3961 1084 3960 
          3960 2965 3949 
          2969 3962 3963 
          3962 1084 3961 
          3961 3054 3963 
          2972 3964 3966 
          3964 2973 3965 
          3965 2974 3966 
          2972 3967 3964 
          3967 1043 3968 
          3968 2973 3964 
          2971 3969 3970 
          3969 1043 3967 
          3967 2972 3970 
          2971 3970 3972 
          3970 2972 3971 
          3971 2970 3972 
          1042 3973 3974 
          3973 2971 3972 
          3972 2970 3974 
          2969 3975 3976 
          3975 1042 3974 
          3974 2970 3976 
          2969 3976 3978 
          3976 2970 3977 
          3977 2968 3978 
          1084 3962 3979 
          3962 2969 3978 
          3978 2968 3979 
          1084 3979 3769 
          3979 2968 3980 
          3980 2966 3769 
          3981 2914 3982 
          3982 2966 3980 
          2914 1891 3982 
          3982 1891 2966 
          2968 3983 3981 
          3983 1083 3765 
          3765 2914 3981 
          2970 3984 3977 
          3984 1083 3983 
          3983 2968 3977 
          2972 3985 3971 
          3985 1083 3984 
          3984 2970 3971 
          1083 3985 3986 
          3985 2972 3966 
          3966 2974 3986 
          1083 3986 3766 
          3986 2974 3987 
          3987 2915 3766 
          3988 2975 3989 
          3989 2915 3987 
          2975 1897 3989 
          3989 1897 2915 
          2974 3990 3988 
          3990 1082 3762 
          3762 2975 3988 
          2973 3991 3965 
          3991 1082 3990 
          3990 2974 3965 
          3045 3992 3993 
          3992 1082 3991 
          3991 2973 3993 
          3045 3994 3996 
          3994 1044 3995 
          3995 3044 3996 
          3045 3996 3998 
          3996 3044 3997 
          3997 2978 3998 
          1082 3992 3999 
          3992 3045 3998 
          3998 2978 3999 
          1082 3999 3763 
          3999 2978 4000 
          4000 2976 3763 
          4001 2979 4002 
          4002 2976 4000 
          2979 1927 4002 
          4002 1927 2976 
          2978 4003 4001 
          4003 1081 3760 
          3760 2979 4001 
          3044 4004 3997 
          4004 1081 4003 
          4003 2978 3997 
          2911 4005 4006 
          4005 1081 4004 
          4004 3044 4006 
          1081 4005 3758 
          4005 2911 4007 
          4007 2913 3758 
          2911 3754 4007 
          3754 2912 4008 
          4008 2913 4007 
          2912 3750 4008 
          3750 1080 4009 
          4009 2913 4008 
          2913 4009 3755 
          4009 1080 4010 
          4010 2982 3755 
          4011 2983 4012 
          4012 2982 4010 
          2983 2984 4012 
          4012 2984 2982 
          2983 4011 4013 
          4011 1080 3724 
          3724 2985 4013 
          4014 2983 4013 
          4013 2985 4015 
          2908 1853 4014 
          4014 1853 2983 
          1079 3708 4016 
          3708 2908 4015 
          4015 2985 4016 
          2987 4017 3726 
          4017 1079 4016 
          4016 2985 3726 
          1079 4017 4018 
          4017 2987 3732 
          3732 2991 4018 
          1079 4018 4019 
          4018 2991 3737 
          3737 2993 4019 
          1079 4019 3709 
          4019 2993 4020 
          4020 2909 3709 
          4021 2994 4022 
          4022 2909 4020 
          2994 2093 4022 
          4022 2093 2909 
          2993 4023 4021 
          4023 1078 3705 
          3705 2994 4021 
          2992 4024 3736 
          4024 1078 4023 
          4023 2993 3736 
          3030 4025 3720 
          4025 1078 4024 
          4024 2992 3720 
          2905 4026 4027 
          4026 1078 4025 
          4025 3030 4027 
          2905 4028 4030 
          4028 1049 4029 
          4029 2906 4030 
          2905 4030 4032 
          4030 2906 4031 
          4031 2907 4032 
          1078 4026 4033 
          4026 2905 4032 
          4032 2907 4033 
          1078 4033 3706 
          4033 2907 4034 
          4034 2995 3706 
          4035 2997 4036 
          4036 2995 4034 
          2997 2099 4036 
          4036 2099 2995 
          2907 4037 4035 
          4037 1077 3702 
          3702 2997 4035 
          2906 4038 4031 
          4038 1077 4037 
          4037 2907 4031 
          3024 4039 4040 
          4039 1077 4038 
          4038 2906 4040 
          3024 4041 4043 
          4041 1050 4042 
          4042 3023 4043 
          3024 4043 4045 
          4043 3023 4044 
          4044 3000 4045 
          1077 4039 4046 
          4039 3024 4045 
          4045 3000 4046 
          1077 4046 3703 
          4046 3000 4047 
          4047 2998 3703 
          4048 3001 4049 
          4049 2998 4047 
          3001 2130 4049 
          4049 2130 2998 
          3000 4050 4048 
          4050 1076 3700 
          3700 3001 4048 
          3023 4051 4044 
          4051 1076 4050 
          4050 3000 4044 
          3005 4052 4053 
          4052 1076 4051 
          4051 3023 4053 
          1076 4052 3698 
          4052 3005 4054 
          4054 3004 3698 
          3005 3694 4054 
          3694 3006 4055 
          4055 3004 4054 
          3006 3690 4055 
          3690 1075 4056 
          4056 3004 4055 
          3004 4056 3695 
          4056 1075 4057 
          4057 2902 3695 
          4057 1075 4058 
          4058 2903 4059 
          2903 2904 4059 
          4059 2904 2902 
          1075 4060 4058 
          4060 3009 3688 
          3688 2903 4058 
          3009 4060 4061 
          4060 1075 3689 
          3689 3008 4061 
          3009 4061 3685 
          4061 3008 4062 
          4062 3010 3685 
          3008 4063 4062 
          4063 1096 4064 
          4064 3010 4062 
          3010 4064 3394 
          4064 1096 4065 
          4065 3017 3394 
          3017 4065 3396 
          4065 1096 4066 
          4066 3007 3396 
          3007 4066 4067 
          4066 1096 4063 
          4063 3008 4067 
          3007 4067 4068 
          4067 3008 3691 
          3691 3006 4068 
          1051 4069 3693 
          4069 3007 4068 
          4068 3006 3693 
          3007 4069 3397 
          4069 1051 4070 
          4070 3018 3397 
          3018 4070 3399 
          4070 1051 4071 
          4071 3019 3399 
          4071 1051 4072 
          4072 3020 4073 
          3020 3021 4073 
          4073 3021 3019 
          1051 4074 4072 
          4074 3022 3392 
          3392 3020 4072 
          3022 4074 4075 
          4074 1051 3692 
          3692 3005 4075 
          3022 4075 4076 
          4075 3005 4053 
          4053 3023 4076 
          1050 4077 4042 
          4077 3022 4076 
          4076 3023 4042 
          3022 4077 3390 
          4077 1050 4078 
          4078 2795 3390 
          4078 1050 4079 
          4079 2796 4080 
          2796 2797 4080 
          4080 2797 2795 
          1050 4081 4079 
          4081 3025 3389 
          3389 2796 4079 
          3025 4081 4082 
          4081 1050 4041 
          4041 3024 4082 
          3025 4082 4083 
          4082 3024 4040 
          4040 2906 4083 
          1049 4084 4029 
          4084 3025 4083 
          4083 2906 4029 
          3025 4084 3387 
          4084 1049 4085 
          4085 3026 3387 
          4085 1049 4086 
          4086 3027 4087 
          3027 3028 4087 
          4087 3028 3026 
          1049 4088 4086 
          4088 3029 3386 
          3386 3027 4086 
          3029 4088 4089 
          4088 1049 4028 
          4028 2905 4089 
          3029 4089 4090 
          4089 2905 4027 
          4027 3030 4090 
          1048 4091 3718 
          4091 3029 4090 
          4090 3030 3718 
          3029 4091 3384 
          4091 1048 4092 
          4092 2792 3384 
          4092 1048 4093 
          4093 2793 4094 
          2793 2794 4094 
          4094 2794 2792 
          1048 4095 4093 
          4095 3032 3383 
          3383 2793 4093 
          3032 4095 4096 
          4095 1048 3717 
          3717 3031 4096 
          3032 4096 4097 
          4096 3031 3741 
          3741 2989 4097 
          1047 4098 3715 
          4098 3032 4097 
          4097 2989 3715 
          3032 4098 3381 
          4098 1047 4099 
          4099 3033 3381 
          4099 1047 4100 
          4100 3034 4101 
          3034 3035 4101 
          4101 3035 3033 
          1047 4102 4100 
          4102 3036 3380 
          3380 3034 4100 
          3036 4102 4103 
          4102 1047 3714 
          3714 2988 4103 
          3036 4103 4104 
          4103 2988 3746 
          3746 3037 4104 
          1046 4105 3712 
          4105 3036 4104 
          4104 3037 3712 
          3036 4105 3378 
          4105 1046 4106 
          4106 2789 3378 
          4106 1046 4107 
          4107 2790 4108 
          2790 2791 4108 
          4108 2791 2789 
          1046 4109 4107 
          4109 3039 3377 
          3377 2790 4107 
          3039 4109 4110 
          4109 1046 3711 
          3711 3038 4110 
          3039 4110 4111 
          4110 3038 3751 
          3751 2912 4111 
          1045 4112 3753 
          4112 3039 4111 
          4111 2912 3753 
          3039 4112 3375 
          4112 1045 4113 
          4113 3040 3375 
          4113 1045 4114 
          4114 3041 4115 
          3041 3042 4115 
          4115 3042 3040 
          1045 4116 4114 
          4116 3043 3374 
          3374 3041 4114 
          3043 4116 4117 
          4116 1045 3752 
          3752 2911 4117 
          3043 4117 4118 
          4117 2911 4006 
          4006 3044 4118 
          1044 4119 3995 
          4119 3043 4118 
          4118 3044 3995 
          3043 4119 3372 
          4119 1044 4120 
          4120 2786 3372 
          4120 1044 4121 
          4121 2787 4122 
          2787 2788 4122 
          4122 2788 2786 
          1044 4123 4121 
          4123 3046 3371 
          3371 2787 4121 
          3046 4123 4124 
          4123 1044 3994 
          3994 3045 4124 
          3046 4124 4125 
          4124 3045 3993 
          3993 2973 4125 
          1043 4126 3968 
          4126 3046 4125 
          4125 2973 3968 
          3046 4126 3369 
          4126 1043 4127 
          4127 3047 3369 
          4128 3048 4129 
          4129 3047 4127 
          3048 3049 4129 
          4129 3049 3047 
          3048 4128 4130 
          4128 1043 3969 
          3969 2971 4130 
          4131 3048 4130 
          4130 2971 4132 
          3050 1492 4131 
          4131 1492 3048 
          1042 4133 3973 
          4133 3050 4132 
          4132 2971 3973 
          4133 1042 4134 
          4134 3051 4135 
          3051 3052 4135 
          4135 3052 3050 
          1042 4136 4134 
          4136 3053 3368 
          3368 3051 4134 
          3053 4136 4137 
          4136 1042 3975 
          3975 2969 4137 
          3053 4137 4138 
          4137 2969 3963 
          3963 3054 4138 
          1041 4139 3947 
          4139 3053 4138 
          4138 3054 3947 
          3053 4139 3366 
          4139 1041 4140 
          4140 2783 3366 
          4140 1041 4141 
          4141 2784 4142 
          2784 2785 4142 
          4142 2785 2783 
          1041 4143 4141 
          4143 3057 3365 
          3365 2784 4141 
          3057 4143 4144 
          4143 1041 3945 
          3945 3056 4144 
          3057 4144 4145 
          4144 3056 3941 
          3941 2918 4145 
          1040 4146 3930 
          4146 3057 4145 
          4145 2918 3930 
          3057 4146 3363 
          4146 1040 4147 
          4147 3058 3363 
          4147 1040 4148 
          4148 3059 4149 
          3059 3060 4149 
          4149 3060 3058 
          1040 4150 4148 
          4150 3061 3362 
          3362 3059 4148 
          3061 4150 4151 
          4150 1040 3929 
          3929 2917 4151 
          3061 4151 4152 
          4151 2917 3928 
          3928 3062 4152 
          1039 4153 3917 
          4153 3061 4152 
          4152 3062 3917 
          3061 4153 3360 
          4153 1039 4154 
          4154 2780 3360 
          4154 1039 4155 
          4155 2781 4156 
          2781 2782 4156 
          4156 2782 2780 
          1039 4157 4155 
          4157 3064 3359 
          3359 2781 4155 
          3064 4157 4158 
          4157 1039 3916 
          3916 3063 4158 
          3064 4158 4159 
          4158 3063 3915 
          3915 2921 4159 
          1038 4160 3890 
          4160 3064 4159 
          4159 2921 3890 
          3064 4160 3357 
          4160 1038 4161 
          4161 3065 3357 
          4162 3066 4163 
          4163 3065 4161 
          3066 3067 4163 
          4163 3067 3065 
          3066 4162 4164 
          4162 1038 3891 
          3891 3068 4164 
          4165 3066 4164 
          4164 3068 4166 
          2777 847 4165 
          4165 847 3066 
          848 4167 3895 
          4167 2777 4166 
          4166 3068 3895 
          4167 848 4168 
          4168 2778 4169 
          2778 2779 4169 
          4169 2779 2777 
          848 4170 4168 
          4170 3071 3356 
          3356 2778 4168 
          3071 4170 4171 
          4170 848 3897 
          3897 3070 4171 
          3071 4171 4172 
          4171 3070 3885 
          3885 2924 4172 
          849 4173 3874 
          4173 3071 4172 
          4172 2924 3874 
          3071 4173 3354 
          4173 849 4174 
          4174 3072 3354 
          4174 849 4175 
          4175 3073 4176 
          3073 3074 4176 
          4176 3074 3072 
          849 4177 4175 
          4177 3075 3353 
          3353 3073 4175 
          3075 4177 4178 
          4177 849 3873 
          3873 2923 4178 
          3075 4178 4179 
          4178 2923 3872 
          3872 3076 4179 
          850 4180 3861 
          4180 3075 4179 
          4179 3076 3861 
          3075 4180 3351 
          4180 850 4181 
          4181 2774 3351 
          4181 850 4182 
          4182 2775 4183 
          2775 2776 4183 
          4183 2776 2774 
          850 4184 4182 
          4184 3078 3350 
          3350 2775 4182 
          3078 4184 4185 
          4184 850 3860 
          3860 3077 4185 
          3078 4185 4186 
          4185 3077 3859 
          3859 2927 4186 
          851 4187 3848 
          4187 3078 4186 
          4186 2927 3848 
          3078 4187 3348 
          4187 851 4188 
          4188 3079 3348 
          4188 851 4189 
          4189 3080 4190 
          3080 3081 4190 
          4190 3081 3079 
          851 4191 4189 
          4191 3082 3347 
          3347 3080 4189 
          3082 4191 4192 
          4191 851 3847 
          3847 2926 4192 
          3082 4192 4193 
          4192 2926 3846 
          3846 3083 4193 
          852 4194 3835 
          4194 3082 4193 
          4193 3083 3835 
          3082 4194 3345 
          4194 852 4195 
          4195 2771 3345 
          4195 852 4196 
          4196 2772 4197 
          2772 2773 4197 
          4197 2773 2771 
          852 4198 4196 
          4198 3085 3344 
          3344 2772 4196 
          3085 4198 4199 
          4198 852 3834 
          3834 3084 4199 
          3085 4199 4200 
          4199 3084 3833 
          3833 3086 4200 
          853 4201 3822 
          4201 3085 4200 
          4200 3086 3822 
          3085 4201 3342 
          4201 853 4202 
          4202 3087 3342 
          4202 853 4203 
          4203 3088 4204 
          3088 3089 4204 
          4204 3089 3087 
          853 4205 4203 
          4205 3090 3341 
          3341 3088 4203 
          3090 4205 4206 
          4205 853 3821 
          3821 3091 4206 
          3090 4206 4207 
          4206 3091 3820 
          3820 2657 4207 
          854 4208 3808 
          4208 3090 4207 
          4207 2657 3808 
          3090 4208 3339 
          4208 854 4209 
          4209 2769 3339 
          4209 854 4210 
          4210 2768 4211 
          2768 2770 4211 
          4211 2770 2769 
          854 4212 4210 
          4212 2767 3338 
          3338 2768 4210 
          2767 4212 4213 
          4212 854 3807 
          3807 2656 4213 
          2767 4213 4214 
          4213 2656 3814 
          3814 2766 4214 
          855 4215 4216 
          4215 2767 4214 
          4214 2766 4216 
          2767 4215 3336 
          4215 855 4217 
          4217 2761 3336 
          4217 855 4218 
          4218 2762 4219 
          2762 2763 4219 
          4219 2763 2761 
          855 4220 4218 
          4220 2764 3335 
          3335 2762 4218 
          2764 4220 3096 
          4220 855 4221 
          4221 2765 3096 
          2765 4221 4222 
          4221 855 4216 
          4216 2766 4222 
          2765 4222 4223 
          4222 2766 3812 
          3812 2663 4223 
          42 4224 4225 
          4224 2765 4223 
          4223 2663 4225 
          2765 4224 3097 
          4224 42 4226 
          4226 2756 3097 
          2756 4226 3100 
          4226 42 4227 
          4227 2754 3100 
          2754 4227 3102 
          4227 42 4228 
          4228 2665 3102 
          4229 2662 4230 
          4230 2665 4228 
          2662 2664 4230 
          4230 2664 2665 
          2662 4229 4231 
          4229 42 4225 
          4225 2663 4231 
          4232 2662 4231 
          4231 2663 4233 
          2660 253 4232 
          4232 253 2662 
          43 4234 3811 
          4234 2660 4233 
          4233 2663 3811 
          4234 43 4235 
          4235 2661 4236 
          2661 2659 4236 
          4236 2659 2660 
          2661 4235 4237 
          4235 43 3816 
          3816 2658 4237 
          4238 2661 4237 
          4237 2658 3805 
          3094 45 4238 
          4238 45 2661 
        </DataArray>
        <DataArray type="Int64" Name="offsets" format="ascii">
          3 6 9 12 15 18 21 24 27 30 33 36 39 42 45 48 51 54 57 60 63 66 69 72 75 78 81 84 87 90 93 96 99 102 105 108 111 114 117 120 123 126 129 132 135 138 141 144 147 150 153 156 159 162 165 168 171 174 177 180 183 186 189 192 195 198 201 204 207 210 213 216 219 222 225 228 231 234 237 240 243 246 249 252 255 258 261 264 267 270 273 276 279 282 285 288 291 294 297 300 303 306 309 312 315 318 321 324 327 330 333 336 339 342 345 348 351 354 357 360 363 366 369 372 375 378 381 384 387 390 393 396 399 402 405 408 411 414 417 420 423 426 429 432 435 438 441 444 447 450 453 456 459 462 465 468 471 474 477 480 483 486 489 492 495 498 501 504 507 510 513 516 519 522 525 528 531 534 537 540 543 546 549 552 555 558 561 564 567 570 573 576 579 582 585 588 591 594 597 600 603 606 609 612 615 618 621 624 627 630 633 636 639 642 645 648 651 654 657 660 663 666 669 672 675 678 681 684 687 690 693 696 699 702 705 708 711 714 717 720 723 726 729 732 735 738 741 744 747 750 753 756 759 762 765 768 771 774 777 780 783 786 789 792 795 798 801 804 807 810 813 816 819 822 825 828 831 834 837 840 843 846 849 852 855 858 861 864 867 870 873 876 879 882 885 888 891 894 897 900 903 906 909 912 915 918 921 924 927 930 933 936 939 942 945 948 951 954 957 960 963 966 969 972 975 978 981 984 987 990 993 996 999 1002 1005 1008 1011 1014 1017 1020 1023 1026 1029 1032 1035 1038 1041 1044 1047 1050 1053 1056 1059 1062 1065 1068 1071 1074 1077 1080 1083 1086 1089 1092 1095 1098 1101 1104 1107 1110 1113 1116 1119 1122 1125 1128 1131 1134 1137 1140 1143 1146 1149 1152 1155 1158 1161 1164 1167 1170 1173 1176 1179 1182 1185 1188 1191 1194 1197 1200 1203 1206 1209 1212 1215 1218 1221 1224 1227 1230 1233 1236 1239 1242 1245 1248 1251 1254 1257 1260 1263 1266 1269 1272 1275 1278 1281 1284 1287 1290 1293 1296 1299 1302 1305 1308 1311 1314 1317 1320 1323 1326 1329 1332 1335 1338 1341 1344 1347 1350 1353 1356 1359 1362 1365 1368 1371 1374 1377 1380 1383 1386 1389 1392 1395 1398 1401 1404 1407 1410 1413 1416 1419 1422 1425 1428 1431 1434 1437 1440 1443 1446 1449 1452 1455 1458 1461 1464 1467 1470 1473 1476 1479 1482 1485 1488 1491 1494 1497 1500 1503 1506 1509 1512 1515 1518 1521 1524 1527 1530 1533 1536 1539 1542 1545 1548 1551 1554 1557 1560 1563 1566 1569 1572 1575 1578 1581 1584 1587 1590 1593 1596 1599 1602 1605 1608 1611 1614 1617 1620 1623 1626 1629 1632 1635 1638 1641 1644 1647 1650 1653 1656 1659 1662 1665 1668 1671 1674 1677 1680 1683 1686 1689 1692 1695 1698 1701 1704 1707 1710 1713 1716 1719 1722 1725 1728 1731 1734 1737 1740 1743 1746 1749 1752 1755 1758 1761 1764 1767 1770 1773 1776 1779 1782 1785 1788 1791 1794 1797 1800 1803 1806 1809 1812 1815 1818 1821 1824 1827 1830 1833 1836 1839 1842 1845 1848 1851 1854 1857 1860 1863 1866 1869 1872 1875 1878 1881 1884 1887 1890 1893 1896 1899 1902 1905 1908 1911 1914 1917 1920 1923 1926 1929 1932 1935 1938 1941 1944 1947 1950 1953 1956 1959 1962 1965 1968 1971 1974 1977 1980 1983 1986 1989 1992 1995 1998 2001 2004 2007 2010 2013 2016 2019 2022 2025 2028 2031 2034 2037 2040 2043 2046 2049 2052 2055 2058 2061 2064 2067 2070 2073 2076 2079 2082 2085 2088 2091 2094 2097 2100 2103 2106 2109 2112 2115 2118 2121 2124 2127 2130 2133 2136 2139 2142 2145 2148 2151 2154 2157 2160 2163 2166 2169 2172 2175 2178 2181 2184 2187 2190 2193 2196 2199 2202 2205 2208 2211 2214 2217 2220 2223 2226 2229 2232 2235 2238 2241 2244 2247 2250 2253 2256 2259 2262 2265 2268 2271 2274 2277 2280 2283 2286 2289 2292 2295 2298 2301 2304 2307 2310 2313 2316 2319 2322 2325 2328 2331 2334 2337 2340 2343 2346 2349 2352 2355 2358 2361 2364 2367 2370 2373 2376 2379 2382 2385 2388 2391 2394 2397 2400 2403 2406 2409 2412 2415 2418 2421 2424 2427 2430 2433 2436 2439 2442 2445 2448 2451 2454 2457 2460 2463 2466 2469 2472 2475 2478 2481 2484 2487 2490 2493 2496 2499 2502 2505 2508 2511 2514 2517 2520 2523 2526 2529 2532 2535 2538 2541 2544 2547 2550 2553 2556 2559 2562 2565 2568 2571 2574 2577 2580 2583 2586 2589 2592 2595 2598 2601 2604 2607 2610 2613 2616 2619 2622 2625 2628 2631 2634 2637 2640 2643 2646 2649 2652 2655 2658 2661 2664 2667 2670 2673 2676 2679 2682 2685 2688 2691 2694 2697 2700 2703 2706 2709 2712 2715 2718 2721 2724 2727 2730 2733 2736 2739 2742 2745 2748 2751 2754 2757 2760 2763 2766 2769 2772 2775 2778 2781 2784 2787 2790 2793 2796 2799 2802 2805 2808 2811 2814 2817 2820 2823 2826 2829 2832 2835 2838 2841 2844 2847 2850 2853 2856 2859 2862 2865 2868 2871 2874 2877 2880 2883 2886 2889 2892 2895 2898 2901 2904 2907 2910 2913 2916 2919 2922 2925 2928 2931 2934 2937 2940 2943 2946 2949 2952 2955 2958 2961 2964 2967 2970 2973 2976 2979 2982 2985 2988 2991 2994 2997 3000 3003 3006 3009 3012 3015 3018 3021 3024 3027 3030 3033 3036 3039 3042 3045 3048 3051 3054 3057 3060 3063 3066 3069 3072 3075 3078 3081 3084 3087 3090 3093 3096 3099 3102 3105 3108 3111 3114 3117 3120 3123 3126 3129 3132 3135 3138 3141 3144 3147 3150 3153 3156 3159 3162 3165 3168 3171 3174 3177 3180 3183 3186 3189 3192 3195 3198 3201 3204 3207 3210 3213 3216 3219 3222 3225 3228 3231 3234 3237 3240 3243 3246 3249 3252 3255 3258 3261 3264 3267 3270 3273 3276 3279 3282 3285 3288 3291 3294 3297 3300 3303 3306 3309 3312 3315 3318 3321 3324 3327 3330 3333 3336 3339 3342 3345 3348 3351 3354 3357 3360 3363 3366 3369 3372 3375 3378 3381 3384 3387 3390 3393 3396 3399 3402 3405 3408 3411 3414 3417 3420 3423 3426 3429 3432 3435 3438 3441 3444 3447 3450 3453 3456 3459 3462 3465 3468 3471 3474 3477 3480 3483 3486 3489 3492 3495 3498 3501 3504 3507 3510 3513 3516 3519 3522 3525 3528 3531 3534 3537 3540 3543 3546 3549 3552 3555 3558 3561 3564 3567 3570 3573 3576 3579 3582 3585 3588 3591 3594 3597 3600 3603 3606 3609 3612 3615 3618 3621 3624 3627 3630 3633 3636 3639 3642 3645 3648 3651 3654 3657 3660 3663 3666 3669 3672 3675 3678 3681 3684 3687 3690 3693 3696 3699 3702 3705 3708 3711 3714 3717 3720 3723 3726 3729 3732 3735 3738 3741 3744 3747 3750 3753 3756 3759 3762 3765 3768 3771 3774 3777 3780 3783 3786 3789 3792 3795 3798 3801 3804 3807 3810 3813 3816 3819 3822 3825 3828 3831 3834 3837 3840 3843 3846 3849 3852 3855 3858 3861 3864 3867 3870 3873 3876 3879 3882 3885 3888 3891 3894 3897 3900 3903 3906 3909 3912 3915 3918 3921 3924 3927 3930 3933 3936 3939 3942 3945 3948 3951 3954 3957 3960 3963 3966 3969 3972 3975 3978 3981 3984 3987 3990 3993 3996 3999 4002 4005 4008 4011 4014 4017 4020 4023 4026 4029 4032 4035 4038 4041 4044 4047 4050 4053 4056 4059 4062 4065 4068 4071 4074 4077 4080 4083 4086 4089 4092 4095 4098 4101 4104 4107 4110 4113 4116 4119 4122 4125 4128 4131 4134 4137 4140 4143 4146 4149 4152 4155 4158 4161 4164 4167 4170 4173 4176 4179 4182 4185 4188 4191 4194 4197 4200 4203 4206 4209 4212 4215 4218 4221 4224 4227 4230 4233 4236 4239 4242 4245 4248 4251 4254 4257 4260 4263 4266 4269 4272 4275 4278 4281 4284 4287 4290 4293 4296 4299 4302 4305 4308 4311 4314 4317 4320 4323 4326 4329 4332 4335 4338 4341 4344 4347 4350 4353 4356 4359 4362 4365 4368 4371 4374 4377 4380 4383 4386 4389 4392 4395 4398 4401 4404 4407 4410 4413 4416 4419 4422 4425 4428 4431 4434 4437 4440 4443 4446 4449 4452 4455 4458 4461 4464 4467 4470 4473 4476 4479 4482 4485 4488 4491 4494 4497 4500 4503 4506 4509 4512 4515 4518 4521 4524 4527 4530 4533 4536 4539 4542 4545 4548 4551 4554 4557 4560 4563 4566 4569 4572 4575 4578 4581 4584 4587 4590 4593 4596 4599 4602 4605 4608 4611 4614 4617 4620 4623 4626 4629 4632 4635 4638 4641 4644 4647 4650 4653 4656 4659 4662 4665 4668 4671 4674 4677 4680 4683 4686 4689 4692 4695 4698 4701 4704 4707 4710 4713 4716 4719 4722 4725 4728 4731 4734 4737 4740 4743 4746 4749 4752 4755 4758 4761 4764 4767 4770 4773 4776 4779 4782 4785 4788 4791 4794 4797 4800 4803 4806 4809 4812 4815 4818 4821 4824 4827 4830 4833 4836 4839 4842 4845 4848 4851 4854 4857 4860 4863 4866 4869 4872 4875 4878 4881 4884 4887 4890 4893 4896 4899 4902 4905 4908 4911 4914 4917 4920 4923 4926 4929 4932 4935 4938 4941 4944 4947 4950 4953 4956 4959 4962 4965 4968 4971 4974 4977 4980 4983 4986 4989 4992 4995 4998 5001 5004 5007 5010 5013 5016 5019 5022 5025 5028 5031 5034 5037 5040 5043 5046 5049 5052 5055 5058 5061 5064 5067 5070 5073 5076 5079 5082 5085 5088 5091 5094 5097 5100 5103 5106 5109 5112 5115 5118 5121 5124 5127 5130 5133 5136 5139 5142 5145 5148 5151 5154 5157 5160 5163 5166 5169 5172 5175 5178 5181 5184 5187 5190 5193 5196 5199 5202 5205 5208 5211 5214 5217 5220 5223 5226 5229 5232 5235 5238 5241 5244 5247 5250 5253 5256 5259 5262 5265 5268 5271 5274 5277 5280 5283 5286 5289 5292 5295 5298 5301 5304 5307 5310 5313 5316 5319 5322 5325 5328 5331 5334 5337 5340 5343 5346 5349 5352 5355 5358 5361 5364 5367 5370 5373 5376 5379 5382 5385 5388 5391 5394 5397 5400 5403 5406 5409 5412 5415 5418 5421 5424 5427 5430 5433 5436 5439 5442 5445 5448 5451 5454 5457 5460 5463 5466 5469 5472 5475 5478 5481 5484 5487 5490 5493 5496 5499 5502 5505 5508 5511 5514 5517 5520 5523 5526 5529 5532 5535 5538 5541 5544 5547 5550 5553 5556 5559 5562 5565 5568 5571 5574 5577 5580 5583 5586 5589 5592 5595 5598 5601 5604 5607 5610 5613 5616 5619 5622 5625 5628 5631 5634 5637 5640 5643 5646 5649 5652 5655 5658 5661 5664 5667 5670 5673 5676 5679 5682 5685 5688 5691 5694 5697 5700 5703 5706 5709 5712 5715 5718 5721 5724 5727 5730 5733 5736 5739 5742 5745 5748 5751 5754 5757 5760 5763 5766 5769 5772 5775 5778 5781 5784 5787 5790 5793 5796 5799 5802 5805 5808 5811 5814 5817 5820 5823 5826 5829 5832 5835 5838 5841 5844 5847 5850 5853 5856 5859 5862 5865 5868 5871 5874 5877 5880 5883 5886 5889 5892 5895 5898 5901 5904 5907 5910 5913 5916 5919 5922 5925 5928 5931 5934 5937 5940 5943 5946 5949 5952 5955 5958 5961 5964 5967 5970 5973 5976 5979 5982 5985 5988 5991 5994 5997 6000 6003 6006 6009 6012 6015 6018 6021 6024 6027 6030 6033 6036 6039 6042 6045 6048 6051 6054 6057 6060 6063 6066 6069 6072 6075 6078 6081 6084 6087 6090 6093 6096 6099 6102 6105 6108 6111 6114 6117 6120 6123 6126 6129 6132 6135 6138 6141 6144 6147 6150 6153 6156 6159 6162 6165 6168 6171 6174 6177 6180 6183 6186 6189 6192 6195 6198 6201 6204 6207 6210 6213 6216 6219 6222 6225 6228 6231 6234 6237 6240 6243 6246 6249 6252 6255 6258 6261 6264 6267 6270 6273 6276 6279 6282 6285 6288 6291 6294 6297 6300 6303 6306 6309 6312 6315 6318 6321 6324 6327 6330 6333 6336 6339 6342 6345 6348 6351 6354 6357 6360 6363 6366 6369 6372 6375 6378 6381 6384 6387 6390 6393 6396 6399 6402 6405 6408 6411 6414 6417 6420 6423 6426 6429 6432 6435 6438 6441 6444 6447 6450 6453 6456 6459 6462 6465 6468 6471 6474 6477 6480 6483 6486 6489 6492 6495 6498 6501 6504 6507 6510 6513 6516 6519 6522 6525 6528 6531 6534 6537 6540 6543 6546 6549 6552 6555 6558 6561 6564 6567 6570 6573 6576 6579 6582 6585 6588 6591 6594 6597 6600 6603 6606 6609 6612 6615 6618 6621 6624 6627 6630 6633 6636 6639 6642 6645 6648 6651 6654 6657 6660 6663 6666 6669 6672 6675 6678 6681 6684 6687 6690 6693 6696 6699 6702 6705 6708 6711 6714 6717 6720 6723 6726 6729 6732 6735 6738 6741 6744 6747 6750 6753 6756 6759 6762 6765 6768 6771 6774 6777 6780 6783 6786 6789 6792 6795 6798 6801 6804 6807 6810 6813 6816 6819 6822 6825 6828 6831 6834 6837 6840 6843 6846 6849 6852 6855 6858 6861 6864 6867 6870 6873 6876 6879 6882 6885 6888 6891 6894 6897 6900 6903 6906 6909 6912 6915 6918 6921 6924 6927 6930 6933 6936 6939 6942 6945 6948 6951 6954 6957 6960 6963 6966 6969 6972 6975 6978 6981 6984 6987 6990 6993 6996 6999 7002 7005 7008 7011 7014 7017 7020 7023 7026 7029 7032 7035 7038 7041 7044 7047 7050 7053 7056 7059 7062 7065 7068 7071 7074 7077 7080 7083 7086 7089 7092 7095 7098 7101 7104 7107 7110 7113 7116 7119 7122 7125 7128 7131 7134 7137 7140 7143 7146 7149 7152 7155 7158 7161 7164 7167 7170 7173 7176 7179 7182 7185 7188 7191 7194 7197 7200 7203 7206 7209 7212 7215 7218 7221 7224 7227 7230 7233 7236 7239 7242 7245 7248 7251 7254 7257 7260 7263 7266 7269 7272 7275 7278 7281 7284 7287 7290 7293 7296 7299 7302 7305 7308 7311 7314 7317 7320 7323 7326 7329 7332 7335 7338 7341 7344 7347 7350 7353 7356 7359 7362 7365 7368 7371 7374 7377 7380 7383 7386 7389 7392 7395 7398 7401 7404 7407 7410 7413 7416 7419 7422 7425 7428 7431 7434 7437 7440 7443 7446 7449 7452 7455 7458 7461 7464 7467 7470 7473 7476 7479 7482 7485 7488 7491 7494 7497 7500 7503 7506 7509 7512 7515 7518 7521 7524 7527 7530 7533 7536 7539 7542 7545 7548 7551 7554 7557 7560 7563 7566 7569 7572 7575 7578 7581 7584 7587 7590 7593 7596 7599 7602 7605 7608 7611 7614 7617 7620 7623 7626 7629 7632 7635 7638 7641 7644 7647 7650 7653 7656 7659 7662 7665 7668 7671 7674 7677 7680 7683 7686 7689 7692 7695 7698 7701 7704 7707 7710 7713 7716 7719 7722 7725 7728 7731 7734 7737 7740 7743 7746 7749 7752 7755 7758 7761 7764 7767 7770 7773 7776 7779 7782 7785 7788 7791 7794 7797 7800 7803 7806 7809 7812 7815 7818 7821 7824 7827 7830 7833 7836 7839 7842 7845 7848 7851 7854 7857 7860 7863 7866 7869 7872 7875 7878 7881 7884 7887 7890 7893 7896 7899 7902 7905 7908 7911 7914 7917 7920 7923 7926 7929 7932 7935 7938 7941 7944 7947 7950 7953 7956 7959 7962 7965 7968 7971 7974 7977 7980 7983 7986 7989 7992 7995 7998 8001 8004 8007 8010 8013 8016 8019 8022 8025 8028 8031 8034 8037 8040 8043 8046 8049 8052 8055 8058 8061 8064 8067 8070 8073 8076 8079 8082 8085 8088 8091 8094 8097 8100 8103 8106 8109 8112 8115 8118 8121 8124 8127 8130 8133 8136 8139 8142 8145 8148 8151 8154 8157 8160 8163 8166 8169 8172 8175 8178 8181 8184 8187 8190 8193 8196 8199 8202 8205 8208 8211 8214 8217 8220 8223 8226 8229 8232 8235 8238 8241 8244 8247 8250 8253 8256 8259 8262 8265 8268 8271 8274 8277 8280 8283 8286 8289 8292 8295 8298 8301 8304 8307 8310 8313 8316 8319 8322 8325 8328 8331 8334 8337 8340 8343 8346 8349 8352 8355 8358 8361 8364 8367 8370 8373 8376 8379 8382 8385 8388 8391 8394 8397 8400 8403 8406 8409 8412 8415 8418 8421 8424 8427 8430 8433 8436 8439 8442 8445 8448 8451 8454 8457 8460 8463 8466 8469 8472 8475 8478 8481 8484 8487 8490 8493 8496 8499 8502 8505 8508 8511 8514 8517 8520 8523 8526 8529 8532 8535 8538 8541 8544 8547 8550 8553 8556 8559 8562 8565 8568 8571 8574 8577 8580 8583 8586 8589 8592 8595 8598 8601 8604 8607 8610 8613 8616 8619 8622 8625 8628 8631 8634 8637 8640 8643 8646 8649 8652 8655 8658 8661 8664 8667 8670 8673 8676 8679 8682 8685 8688 8691 8694 8697 8700 8703 8706 8709 8712 8715 8718 8721 8724 8727 8730 8733 8736 8739 8742 8745 8748 8751 8754 8757 8760 8763 8766 8769 8772 8775 8778 8781 8784 8787 8790 8793 8796 8799 8802 8805 8808 8811 8814 8817 8820 8823 8826 8829 8832 8835 8838 8841 8844 8847 8850 8853 8856 8859 8862 8865 8868 8871 8874 8877 8880 8883 8886 8889 8892 8895 8898 8901 8904 8907 8910 8913 8916 8919 8922 8925 8928 8931 8934 8937 8940 8943 8946 8949 8952 8955 8958 8961 8964 8967 8970 8973 8976 8979 8982 8985 8988 8991 8994 8997 9000 9003 9006 9009 9012 9015 9018 9021 9024 9027 9030 9033 9036 9039 9042 9045 9048 9051 9054 9057 9060 9063 9066 9069 9072 9075 9078 9081 9084 9087 9090 9093 9096 9099 9102 9105 9108 9111 9114 9117 9120 9123 9126 9129 9132 9135 9138 9141 9144 9147 9150 9153 9156 9159 9162 9165 9168 9171 9174 9177 9180 9183 9186 9189 9192 9195 9198 9201 9204 9207 9210 9213 9216 9219 9222 9225 9228 9231 9234 9237 9240 9243 9246 9249 9252 9255 9258 9261 9264 9267 9270 9273 9276 9279 9282 9285 9288 9291 9294 9297 9300 9303 9306 9309 9312 9315 9318 9321 9324 9327 9330 9333 9336 9339 9342 9345 9348 9351 9354 9357 9360 9363 9366 9369 9372 9375 9378 9381 9384 9387 9390 9393 9396 9399 9402 9405 9408 9411 9414 9417 9420 9423 9426 9429 9432 9435 9438 9441 9444 9447 9450 9453 9456 9459 9462 9465 9468 9471 9474 9477 9480 9483 9486 9489 9492 9495 9498 9501 9504 9507 9510 9513 9516 9519 9522 9525 9528 9531 9534 9537 9540 9543 9546 9549 9552 9555 9558 9561 9564 9567 9570 9573 9576 9579 9582 9585 9588 9591 9594 9597 9600 9603 9606 9609 9612 9615 9618 9621 9624 9627 9630 9633 9636 9639 9642 9645 9648 9651 9654 9657 9660 9663 9666 9669 9672 9675 9678 9681 9684 9687 9690 9693 9696 9699 9702 9705 9708 9711 9714 9717 9720 9723 9726 9729 9732 9735 9738 9741 9744 9747 9750 9753 9756 9759 9762 9765 9768 9771 9774 9777 9780 9783 9786 9789 9792 9795 9798 9801 9804 9807 9810 9813 9816 9819 9822 9825 9828 9831 9834 9837 9840 9843 9846 9849 9852 9855 9858 9861 9864 9867 9870 9873 9876 9879 9882 9885 9888 9891 9894 9897 9900 9903 9906 9909 9912 9915 9918 9921 9924 9927 9930 9933 9936 9939 9942 9945 9948 9951 9954 9957 9960 9963 9966 9969 9972 9975 9978 9981 9984 9987 9990 9993 9996 9999 10002 10005 10008 10011 10014 10017 10020 10023 10026 10029 10032 10035 10038 10041 10044 10047 10050 10053 10056 10059 10062 10065 10068 10071 10074 10077 10080 10083 10086 10089 10092 10095 10098 10101 10104 10107 10110 10113 10116 10119 10122 10125 10128 10131 10134 10137 10140 10143 10146 10149 10152 10155 10158 10161 10164 10167 10170 10173 10176 10179 10182 10185 10188 10191 10194 10197 10200 10203 10206 10209 10212 10215 10218 10221 10224 10227 10230 10233 10236 10239 10242 10245 10248 10251 10254 10257 10260 10263 10266 10269 10272 10275 10278 10281 10284 10287 10290 10293 10296 10299 10302 10305 10308 10311 10314 10317 10320 10323 10326 10329 10332 10335 10338 10341 10344 10347 10350 10353 10356 10359 10362 10365 10368 10371 10374 10377 10380 10383 10386 10389 10392 10395 10398 10401 10404 10407 10410 10413 10416 10419 10422 10425 10428 10431 10434 10437 10440 10443 10446 10449 10452 10455 10458 10461 10464 10467 10470 10473 10476 10479 10482 10485 10488 10491 10494 10497 10500 10503 10506 10509 10512 10515 10518 10521 10524 10527 10530 10533 10536 10539 10542 10545 10548 10551 10554 10557 10560 10563 10566 10569 10572 10575 10578 10581 10584 10587 10590 10593 10596 10599 10602 10605 10608 10611 10614 10617 10620 10623 10626 10629 10632 10635 10638 10641 10644 10647 10650 10653 10656 10659 10662 10665 10668 10671 10674 10677 10680 10683 10686 10689 10692 10695 10698 10701 10704 10707 10710 10713 10716 10719 10722 10725 10728 10731 10734 10737 10740 10743 10746 10749 10752 10755 10758 10761 10764 10767 10770 10773 10776 10779 10782 10785 10788 10791 10794 10797 10800 10803 10806 10809 10812 10815 10818 10821 10824 10827 10830 10833 10836 10839 10842 10845 10848 10851 10854 10857 10860 10863 10866 10869 10872 10875 10878 10881 10884 10887 10890 10893 10896 10899 10902 10905 10908 10911 10914 10917 10920 10923 10926 10929 10932 10935 10938 10941 10944 10947 10950 10953 10956 10959 10962 10965 10968 10971 10974 10977 10980 10983 10986 10989 10992 10995 10998 11001 11004 11007 11010 11013 11016 11019 11022 11025 11028 11031 11034 11037 11040 11043 11046 11049 11052 11055 11058 11061 11064 11067 11070 11073 11076 11079 11082 11085 11088 11091 11094 11097 11100 11103 11106 11109 11112 11115 11118 11121 11124 11127 11130 11133 11136 11139 11142 11145 11148 11151 11154 11157 11160 11163 11166 11169 11172 11175 11178 11181 11184 11187 11190 11193 11196 11199 11202 11205 11208 11211 11214 11217 11220 11223 11226 11229 11232 11235 11238 11241 11244 11247 11250 11253 11256 11259 11262 11265 11268 11271 11274 11277 11280 11283 11286 11289 11292 11295 11298 11301 11304 11307 11310 11313 11316 11319 11322 11325 11328 11331 11334 11337 11340 11343 11346 11349 11352 11355 11358 11361 11364 11367 11370 11373 11376 11379 11382 11385 11388 11391 11394 11397 11400 11403 11406 11409 11412 11415 11418 11421 11424 11427 11430 11433 11436 11439 11442 11445 11448 11451 11454 11457 11460 11463 11466 11469 11472 11475 11478 11481 11484 11487 11490 11493 11496 11499 11502 11505 11508 11511 11514 11517 11520 11523 11526 11529 11532 11535 11538 11541 11544 11547 11550 11553 11556 11559 11562 11565 11568 11571 11574 11577 11580 11583 11586 11589 11592 11595 11598 11601 11604 11607 11610 11613 11616 11619 11622 11625 11628 11631 11634 11637 11640 11643 11646 11649 11652 11655 11658 11661 11664 11667 11670 11673 11676 11679 11682 11685 11688 11691 11694 11697 11700 11703 11706 11709 11712 11715 11718 11721 11724 11727 11730 11733 11736 11739 11742 11745 11748 11751 11754 11757 11760 11763 11766 11769 11772 11775 11778 11781 11784 11787 11790 11793 11796 11799 11802 11805 11808 11811 11814 11817 11820 11823 11826 11829 11832 11835 11838 11841 11844 11847 11850 11853 11856 11859 11862 11865 11868 11871 11874 11877 11880 11883 11886 11889 11892 11895 11898 11901 11904 11907 11910 11913 11916 11919 11922 11925 11928 11931 11934 11937 11940 11943 11946 11949 11952 11955 11958 11961 11964 11967 11970 11973 11976 11979 11982 11985 11988 11991 11994 11997 12000 12003 12006 12009 12012 12015 12018 12021 12024 12027 12030 12033 12036 12039 12042 12045 12048 12051 12054 12057 12060 12063 12066 12069 12072 12075 12078 12081 12084 12087 12090 12093 12096 12099 12102 12105 12108 12111 12114 12117 12120 12123 12126 12129 12132 12135 12138 12141 12144 12147 12150 12153 12156 12159 12162 12165 12168 12171 12174 12177 12180 12183 12186 12189 12192 12195 12198 12201 12204 12207 12210 12213 12216 12219 12222 12225 12228 12231 12234 12237 12240 12243 12246 12249 12252 12255 12258 12261 12264 12267 12270 12273 12276 12279 12282 12285 12288 12291 12294 12297 12300 12303 12306 12309 12312 12315 12318 12321 12324 12327 12330 12333 12336 12339 12342 12345 12348 12351 12354 12357 12360 12363 12366 12369 12372 12375 12378 12381 12384 12387 12390 12393 12396 12399 12402 12405 12408 12411 12414 12417 12420 12423 12426 12429 12432 12435 12438 12441 12444 12447 12450 12453 12456 12459 12462 12465 12468 12471 12474 12477 12480 12483 12486 12489 12492 12495 12498 12501 12504 12507 12510 12513 12516 12519 12522 12525 12528 12531 12534 12537 12540 12543 12546 12549 12552 12555 12558 12561 12564 12567 12570 12573 12576 12579 12582 12585 12588 12591 12594 12597 12600 12603 12606 12609 12612 12615 12618 12621 12624 12627 12630 12633 12636 12639 12642 12645 12648 12651 12654 12657 12660 12663 12666 12669 12672 12675 12678 12681 12684 12687 12690 12693 12696 12699 12702 12705 12708 12711 12714 12717 12720 12723 12726 12729 12732 12735 12738 12741 12744 12747 12750 12753 12756 12759 12762 12765 12768 12771 12774 12777 12780 12783 12786 12789 12792 12795 12798 12801 12804 12807 12810 12813 12816 12819 12822 12825 12828 12831 12834 12837 12840 12843 12846 12849 12852 12855 12858 12861 12864 12867 12870 12873 12876 12879 12882 12885 12888 12891 12894 12897 12900 12903 12906 12909 12912 12915 12918 12921 12924 12927 12930 12933 12936 12939 12942 12945 12948 12951 12954 12957 12960 12963 12966 12969 12972 12975 12978 12981 12984 12987 12990 12993 12996 12999 13002 13005 13008 13011 13014 13017 13020 13023 13026 13029 13032 13035 13038 13041 13044 13047 13050 13053 13056 13059 13062 13065 13068 13071 13074 13077 13080 13083 13086 13089 13092 13095 13098 13101 13104 13107 13110 13113 13116 13119 13122 13125 13128 13131 13134 13137 13140 13143 13146 13149 13152 13155 13158 13161 13164 13167 13170 13173 13176 13179 13182 13185 13188 13191 13194 13197 13200 13203 13206 13209 13212 13215 13218 13221 13224 13227 13230 13233 13236 13239 13242 13245 13248 13251 13254 13257 13260 13263 13266 13269 13272 13275 13278 13281 13284 13287 13290 13293 13296 13299 13302 13305 13308 13311 13314 13317 13320 13323 13326 13329 13332 13335 13338 13341 13344 13347 13350 13353 13356 13359 13362 13365 13368 13371 13374 13377 13380 13383 13386 13389 13392 13395 13398 13401 13404 13407 13410 13413 13416 13419 13422 13425 13428 13431 13434 13437 13440 13443 13446 13449 13452 13455 13458 13461 13464 13467 13470 13473 13476 13479 13482 13485 13488 13491 13494 13497 13500 13503 13506 13509 13512 13515 13518 13521 13524 13527 13530 13533 13536 13539 13542 13545 13548 13551 13554 13557 13560 13563 13566 13569 13572 13575 13578 13581 13584 13587 13590 13593 13596 13599 13602 13605 13608 13611 13614 13617 13620 13623 13626 13629 13632 13635 13638 13641 13644 13647 13650 13653 13656 13659 13662 13665 13668 13671 13674 13677 13680 13683 13686 13689 13692 13695 13698 13701 13704 13707 13710 13713 13716 13719 13722 13725 13728 13731 13734 13737 13740 13743 13746 13749 13752 13755 13758 13761 13764 13767 13770 13773 13776 13779 13782 13785 13788 13791 13794 13797 13800 13803 13806 13809 13812 13815 13818 13821 13824 13827 13830 13833 13836 13839 13842 13845 13848 13851 13854 13857 13860 13863 13866 13869 13872 13875 13878 13881 13884 13887 13890 13893 13896 13899 13902 13905 13908 13911 13914 13917 13920 13923 13926 13929 13932 13935 13938 13941 13944 13947 13950 13953 13956 13959 13962 13965 13968 13971 13974 13977 13980 13983 13986 13989 13992 13995 13998 14001 14004 14007 14010 14013 14016 14019 14022 14025 14028 14031 14034 14037 14040 14043 14046 14049 14052 14055 14058 14061 14064 14067 14070 14073 14076 14079 14082 14085 14088 14091 14094 14097 14100 14103 14106 14109 14112 14115 14118 14121 14124 14127 14130 14133 14136 14139 14142 14145 14148 14151 14154 14157 14160 14163 14166 14169 14172 14175 14178 14181 14184 14187 14190 14193 14196 14199 14202 14205 14208 14211 14214 14217 14220 14223 14226 14229 14232 14235 14238 14241 14244 14247 14250 14253 14256 14259 14262 14265 14268 14271 14274 14277 14280 14283 14286 14289 14292 14295 14298 14301 14304 14307 14310 14313 14316 14319 14322 14325 14328 14331 14334 14337 14340 14343 14346 14349 14352 14355 14358 14361 14364 14367 14370 14373 14376 14379 14382 14385 14388 14391 14394 14397 14400 14403 14406 14409 14412 14415 14418 14421 14424 14427 14430 14433 14436 14439 14442 14445 14448 14451 14454 14457 14460 14463 14466 14469 14472 14475 14478 14481 14484 14487 14490 14493 14496 14499 14502 14505 14508 14511 14514 14517 14520 14523 14526 14529 14532 14535 14538 14541 14544 14547 14550 14553 14556 14559 14562 14565 14568 14571 14574 14577 14580 14583 14586 14589 14592 14595 14598 14601 14604 14607 14610 14613 14616 14619 14622 14625 14628 14631 14634 14637 14640 14643 14646 14649 14652 14655 14658 14661 14664 14667 14670 14673 14676 14679 14682 14685 14688 14691 14694 14697 14700 14703 14706 14709 14712 14715 14718 14721 14724 14727 14730 14733 14736 14739 14742 14745 14748 14751 14754 14757 14760 14763 14766 14769 14772 14775 14778 14781 14784 14787 14790 14793 14796 14799 14802 14805 14808 14811 14814 14817 14820 14823 14826 14829 14832 14835 14838 14841 14844 14847 14850 14853 14856 14859 14862 14865 14868 14871 14874 14877 14880 14883 14886 14889 14892 14895 14898 14901 14904 14907 14910 14913 14916 14919 14922 14925 14928 14931 14934 14937 14940 14943 14946 14949 14952 14955 14958 14961 14964 14967 14970 14973 14976 14979 14982 14985 14988 14991 14994 14997 15000 15003 15006 15009 15012 15015 15018 15021 15024 15027 15030 15033 15036 15039 15042 15045 15048 15051 15054 15057 15060 15063 15066 15069 15072 15075 15078 15081 15084 15087 15090 15093 15096 15099 15102 15105 15108 15111 15114 15117 15120 15123 15126 15129 15132 15135 15138 15141 15144 15147 15150 15153 15156 15159 15162 15165 15168 15171 15174 15177 15180 15183 15186 15189 15192 15195 15198 15201 15204 15207 15210 15213 15216 15219 15222 15225 15228 15231 15234 15237 15240 15243 15246 15249 15252 15255 15258 15261 15264 15267 15270 15273 15276 15279 15282 15285 15288 15291 15294 15297 15300 15303 15306 15309 15312 15315 15318 15321 15324 15327 15330 15333 15336 15339 15342 15345 15348 15351 15354 15357 15360 15363 15366 15369 15372 15375 15378 15381 15384 15387 15390 15393 15396 15399 15402 15405 15408 15411 15414 15417 15420 15423 15426 15429 15432 15435 15438 15441 15444 15447 15450 15453 15456 15459 15462 15465 15468 15471 15474 15477 15480 15483 15486 15489 15492 15495 15498 15501 15504 15507 15510 15513 15516 15519 15522 15525 15528 15531 15534 15537 15540 15543 15546 15549 15552 15555 15558 15561 15564 15567 15570 15573 15576 15579 15582 15585 15588 15591 15594 15597 15600 15603 15606 15609 15612 15615 15618 15621 15624 15627 15630 15633 15636 15639 15642 15645 15648 15651 15654 15657 15660 15663 15666 15669 15672 15675 15678 15681 15684 15687 15690 15693 15696 15699 15702 15705 15708 15711 15714 15717 15720 15723 15726 15729 15732 15735 15738 15741 15744 15747 15750 15753 15756 15759 15762 15765 15768 15771 15774 15777 15780 15783 15786 15789 15792 15795 15798 15801 15804 15807 15810 15813 15816 15819 15822 15825 15828 15831 15834 15837 15840 15843 15846 15849 15852 15855 15858 15861 15864 15867 15870 15873 15876 15879 15882 15885 15888 15891 15894 15897 15900 15903 15906 15909 15912 15915 15918 15921 15924 15927 15930 15933 15936 15939 15942 15945 15948 15951 15954 15957 15960 15963 15966 15969 15972 15975 15978 15981 15984 15987 15990 15993 15996 15999 16002 16005 16008 16011 16014 16017 16020 16023 16026 16029 16032 16035 16038 16041 16044 16047 16050 16053 16056 16059 16062 16065 16068 16071 16074 16077 16080 16083 16086 16089 16092 16095 16098 16101 16104 16107 16110 16113 16116 16119 16122 16125 16128 16131 16134 16137 16140 16143 16146 16149 16152 16155 16158 16161 16164 16167 16170 16173 16176 16179 16182 16185 16188 16191 16194 16197 16200 16203 16206 16209 16212 16215 16218 16221 16224 16227 16230 16233 16236 16239 16242 16245 16248 16251 16254 16257 16260 16263 16266 16269 16272 16275 16278 16281 16284 16287 16290 16293 16296 16299 16302 16305 16308 16311 16314 16317 16320 16323 16326 16329 16332 16335 16338 16341 16344 16347 16350 16353 16356 16359 16362 16365 16368 16371 16374 16377 16380 16383 16386 16389 16392 16395 16398 16401 16404 16407 16410 16413 16416 16419 16422 16425 16428 16431 16434 16437 16440 16443 16446 16449 16452 16455 16458 16461 16464 16467 16470 16473 16476 16479 16482 16485 16488 16491 16494 16497 16500 16503 16506 16509 16512 16515 16518 16521 16524 16527 16530 16533 16536 16539 16542 16545 16548 16551 16554 16557 16560 16563 16566 16569 16572 16575 16578 16581 16584 16587 16590 16593 16596 16599 16602 16605 16608 16611 16614 16617 16620 16623 16626 16629 16632 16635 16638 16641 16644 16647 16650 16653 16656 16659 16662 16665 16668 16671 16674 16677 16680 16683 16686 16689 16692 16695 16698 16701 16704 16707 16710 16713 16716 16719 16722 16725 16728 16731 16734 16737 16740 16743 16746 16749 16752 16755 16758 16761 16764 16767 16770 16773 16776 16779 16782 16785 16788 16791 16794 16797 16800 16803 16806 16809 16812 16815 16818 16821 16824 16827 16830 16833 16836 16839 16842 16845 16848 16851 16854 16857 16860 16863 16866 16869 16872 16875 16878 16881 16884 16887 16890 16893 16896 16899 16902 16905 16908 16911 16914 16917 16920 16923 16926 16929 16932 16935 16938 16941 16944 16947 16950 16953 16956 16959 16962 16965 16968 16971 16974 16977 16980 16983 16986 16989 16992 16995 16998 17001 17004 17007 17010 17013 17016 17019 17022 17025 17028 17031 17034 17037 17040 17043 17046 17049 17052 17055 17058 17061 17064 17067 17070 17073 17076 17079 17082 17085 17088 17091 17094 17097 17100 17103 17106 17109 17112 17115 17118 17121 17124 17127 17130 17133 17136 17139 17142 17145 17148 17151 17154 17157 17160 17163 17166 17169 17172 17175 17178 17181 17184 17187 17190 17193 17196 17199 17202 17205 17208 17211 17214 17217 17220 17223 17226 17229 17232 17235 17238 17241 17244 17247 17250 17253 17256 17259 17262 17265 17268 17271 17274 17277 17280 17283 17286 17289 17292 17295 17298 17301 17304 17307 17310 17313 17316 17319 17322 17325 17328 17331 17334 17337 17340 17343 17346 17349 17352 17355 17358 17361 17364 17367 17370 17373 17376 17379 17382 17385 17388 17391 17394 17397 17400 17403 17406 17409 17412 17415 17418 17421 17424 17427 17430 17433 17436 17439 17442 17445 17448 17451 17454 17457 17460 17463 17466 17469 17472 17475 17478 17481 17484 17487 17490 17493 17496 17499 17502 17505 17508 17511 17514 17517 17520 17523 17526 17529 17532 17535 17538 17541 17544 17547 17550 17553 17556 17559 17562 17565 17568 17571 17574 17577 17580 17583 17586 17589 17592 17595 17598 17601 17604 17607 17610 17613 17616 17619 17622 17625 17628 17631 17634 17637 17640 17643 17646 17649 17652 17655 17658 17661 17664 17667 17670 17673 17676 17679 17682 17685 17688 17691 17694 17697 17700 17703 17706 17709 17712 17715 17718 17721 17724 17727 17730 17733 17736 17739 17742 17745 17748 17751 17754 17757 17760 17763 17766 17769 17772 17775 17778 17781 17784 17787 17790 17793 17796 17799 17802 17805 17808 17811 17814 17817 17820 17823 17826 17829 17832 17835 17838 17841 17844 17847 17850 17853 17856 17859 17862 17865 17868 17871 17874 17877 17880 17883 17886 17889 17892 17895 17898 17901 17904 17907 17910 17913 17916 17919 17922 17925 17928 17931 17934 17937 17940 17943 17946 17949 17952 17955 17958 17961 17964 17967 17970 17973 17976 17979 17982 17985 17988 17991 17994 17997 18000 18003 18006 18009 18012 18015 18018 18021 18024 18027 18030 18033 18036 18039 18042 18045 18048 18051 18054 18057 18060 18063 18066 18069 18072 18075 18078 18081 18084 18087 18090 18093 18096 18099 18102 18105 18108 18111 18114 18117 18120 18123 18126 18129 18132 18135 18138 18141 18144 18147 18150 18153 18156 18159 18162 18165 18168 18171 18174 18177 18180 18183 18186 18189 18192 18195 18198 18201 18204 18207 18210 18213 18216 18219 18222 18225 18228 18231 18234 18237 18240 18243 18246 18249 18252 18255 18258 18261 18264 18267 18270 18273 18276 18279 18282 18285 18288 18291 18294 18297 18300 18303 18306 18309 18312 18315 18318 18321 18324 18327 18330 18333 18336 18339 18342 18345 18348 18351 18354 18357 18360 18363 18366 18369 18372 18375 18378 18381 18384 18387 18390 18393 18396 18399 18402 18405 18408 18411 18414 18417 18420 18423 18426 18429 18432 18435 18438 18441 18444 18447 18450 18453 18456 18459 18462 18465 18468 18471 18474 18477 18480 18483 18486 18489 18492 18495 18498 18501 18504 18507 18510 18513 18516 18519 18522 18525 18528 18531 18534 18537 18540 18543 18546 18549 18552 18555 18558 18561 18564 18567 18570 18573 18576 18579 18582 18585 18588 18591 18594 18597 18600 18603 18606 18609 18612 18615 18618 18621 18624 18627 18630 18633 18636 18639 18642 18645 18648 18651 18654 18657 18660 18663 18666 18669 18672 18675 18678 18681 18684 18687 18690 18693 18696 18699 18702 18705 18708 18711 18714 18717 18720 18723 18726 18729 18732 18735 18738 18741 18744 18747 18750 18753 18756 18759 18762 18765 18768 18771 18774 18777 18780 18783 18786 18789 18792 18795 18798 18801 18804 18807 18810 18813 18816 18819 18822 18825 18828 18831 18834 18837 18840 18843 18846 18849 18852 18855 18858 18861 18864 18867 18870 18873 18876 18879 18882 18885 18888 18891 18894 18897 18900 18903 18906 18909 18912 18915 18918 18921 18924 18927 18930 18933 18936 18939 18942 18945 18948 18951 18954 18957 18960 18963 18966 18969 18972 18975 18978 18981 18984 18987 18990 18993 18996 18999 19002 19005 19008 19011 19014 19017 19020 19023 19026 19029 19032 19035 19038 19041 19044 19047 19050 19053 19056 19059 19062 19065 19068 19071 19074 19077 19080 19083 19086 19089 19092 19095 19098 19101 19104 19107 19110 19113 19116 19119 19122 19125 19128 19131 19134 19137 19140 19143 19146 19149 19152 19155 19158 19161 19164 19167 19170 19173 19176 19179 19182 19185 19188 19191 19194 19197 19200 19203 19206 19209 19212 19215 19218 19221 19224 19227 19230 19233 19236 19239 19242 19245 19248 19251 19254 19257 19260 19263 19266 19269 19272 19275 19278 19281 19284 19287 19290 19293 19296 19299 19302 19305 19308 19311 19314 19317 19320 19323 19326 19329 19332 19335 19338 19341 19344 19347 19350 19353 19356 19359 19362 19365 19368 19371 19374 19377 19380 19383 19386 19389 19392 19395 19398 19401 19404 19407 19410 19413 19416 19419 19422 19425 19428 19431 19434 19437 19440 19443 19446 19449 19452 19455 19458 19461 19464 19467 19470 19473 19476 19479 19482 19485 19488 19491 19494 19497 19500 19503 19506 19509 19512 19515 19518 19521 19524 19527 19530 19533 19536 19539 19542 19545 19548 19551 19554 19557 19560 19563 19566 19569 19572 19575 19578 19581 19584 19587 19590 19593 19596 19599 19602 19605 19608 19611 19614 19617 19620 19623 19626 19629 19632 19635 19638 19641 19644 19647 19650 19653 19656 19659 19662 19665 19668 19671 19674 19677 19680 19683 19686 19689 19692 19695 19698 19701 19704 19707 19710 19713 19716 19719 19722 19725 19728 19731 19734 19737 19740 19743 19746 19749 19752 19755 19758 19761 19764 19767 19770 19773 19776 19779 19782 19785 19788 19791 19794 19797 19800 19803 19806 19809 19812 19815 19818 19821 19824 19827 19830 19833 19836 19839 19842 19845 19848 19851 19854 19857 19860 19863 19866 19869 19872 19875 19878 19881 19884 19887 19890 19893 19896 19899 19902 19905 19908 19911 19914 19917 19920 19923 19926 19929 19932 19935 19938 19941 19944 19947 19950 19953 19956 19959 19962 19965 19968 19971 19974 19977 19980 19983 19986 19989 19992 19995 19998 20001 20004 20007 20010 20013 20016 20019 20022 20025 20028 20031 20034 20037 20040 20043 20046 20049 20052 20055 20058 20061 20064 20067 20070 20073 20076 20079 20082 20085 20088 20091 20094 20097 20100 20103 20106 20109 20112 20115 20118 20121 20124 20127 20130 20133 20136 20139 20142 20145 20148 20151 20154 20157 20160 20163 20166 20169 20172 20175 20178 20181 20184 20187 20190 20193 20196 20199 20202 20205 20208 20211 20214 20217 20220 20223 20226 20229 20232 20235 20238 20241 20244 20247 20250 20253 20256 20259 20262 20265 20268 20271 20274 20277 20280 20283 20286 20289 20292 20295 20298 20301 20304 20307 20310 20313 20316 20319 20322 20325 20328 20331 20334 20337 20340 20343 20346 20349 20352 20355 20358 20361 20364 20367 20370 20373 20376 20379 20382 20385 20388 20391 20394 20397 20400 20403 20406 20409 20412 20415 20418 20421 20424 20427 20430 20433 20436 20439 20442 20445 20448 20451 20454 20457 20460 20463 20466 20469 20472 20475 20478 20481 20484 20487 20490 20493 20496 20499 20502 20505 20508 20511 20514 20517 20520 20523 20526 20529 20532 20535 20538 20541 20544 20547 20550 20553 20556 20559 20562 20565 20568 20571 20574 20577 20580 20583 20586 20589 20592 20595 20598 20601 20604 20607 20610 20613 20616 20619 20622 20625 20628 20631 20634 20637 20640 20643 20646 20649 20652 20655 20658 20661 20664 20667 20670 20673 20676 20679 20682 20685 20688 20691 20694 20697 20700 20703 20706 20709 20712 20715 20718 20721 20724 20727 20730 20733 20736 20739 20742 20745 20748 20751 20754 20757 20760 20763 20766 20769 20772 20775 20778 20781 20784 20787 20790 20793 20796 20799 20802 20805 20808 20811 20814 20817 20820 20823 20826 20829 20832 20835 20838 20841 20844 20847 20850 20853 20856 20859 20862 20865 20868 20871 20874 20877 20880 20883 20886 20889 20892 20895 20898 20901 20904 20907 20910 20913 20916 20919 20922 20925 20928 20931 20934 20937 20940 20943 20946 20949 20952 20955 20958 20961 20964 20967 20970 20973 20976 20979 20982 20985 20988 20991 20994 20997 21000 21003 21006 21009 21012 21015 21018 21021 21024 21027 21030 21033 21036 21039 21042 21045 21048 21051 21054 21057 21060 21063 21066 21069 21072 21075 21078 21081 21084 21087 21090 21093 21096 21099 21102 21105 21108 21111 21114 21117 21120 21123 21126 21129 21132 21135 21138 21141 21144 21147 21150 21153 21156 21159 21162 21165 21168 21171 21174 21177 21180 21183 21186 21189 21192 21195 21198 21201 21204 21207 21210 21213 21216 21219 21222 21225 21228 21231 21234 21237 21240 21243 21246 21249 21252 21255 21258 21261 21264 21267 21270 21273 21276 21279 21282 21285 21288 21291 21294 21297 21300 21303 21306 21309 21312 21315 21318 21321 21324 21327 21330 21333 21336 21339 21342 21345 21348 21351 21354 21357 21360 21363 21366 21369 21372 21375 21378 21381 21384 21387 21390 21393 21396 21399 21402 21405 21408 21411 21414 21417 21420 21423 21426 21429 21432 21435 21438 21441 21444 21447 21450 21453 21456 21459 21462 21465 21468 21471 21474 21477 21480 21483 21486 21489 21492 21495 21498 21501 21504 21507 21510 21513 21516 21519 21522 21525 21528 21531 21534 21537 21540 21543 21546 21549 21552 21555 21558 21561 21564 21567 21570 21573 21576 21579 21582 21585 21588 21591 21594 21597 21600 21603 21606 21609 21612 21615 21618 21621 21624 21627 21630 21633 21636 21639 21642 21645 21648 21651 21654 21657 21660 21663 21666 21669 21672 21675 21678 21681 21684 21687 21690 21693 21696 21699 21702 21705 21708 21711 21714 21717 21720 21723 21726 21729 21732 21735 21738 21741 21744 21747 21750 21753 21756 21759 21762 21765 21768 21771 21774 21777 21780 21783 21786 21789 21792 21795 21798 21801 21804 21807 21810 21813 21816 21819 21822 21825 21828 21831 21834 21837 21840 21843 21846 21849 21852 21855 21858 21861 21864 21867 21870 21873 21876 21879 21882 21885 21888 21891 21894 21897 21900 21903 21906 21909 21912 21915 21918 21921 21924 21927 21930 21933 21936 21939 21942 21945 21948 21951 21954 21957 21960 21963 21966 21969 21972 21975 21978 21981 21984 21987 21990 21993 21996 21999 22002 22005 22008 22011 22014 22017 22020 22023 22026 22029 22032 22035 22038 22041 22044 22047 22050 22053 22056 22059 22062 22065 22068 22071 22074 22077 22080 22083 22086 22089 22092 22095 22098 22101 22104 22107 22110 22113 22116 22119 22122 22125 22128 22131 22134 22137 22140 22143 22146 22149 22152 22155 22158 22161 22164 22167 22170 22173 22176 22179 22182 22185 22188 22191 22194 22197 22200 22203 22206 22209 22212 22215 22218 22221 22224 22227 22230 22233 22236 22239 22242 22245 22248 22251 22254 22257 22260 22263 22266 22269 22272 22275 22278 22281 22284 22287 22290 22293 22296 22299 22302 22305 22308 22311 22314 22317 22320 22323 22326 22329 22332 22335 22338 22341 22344 22347 22350 22353 22356 22359 22362 22365 22368 22371 22374 22377 22380 22383 22386 22389 22392 22395 22398 22401 22404 22407 22410 22413 22416 22419 22422 22425 22428 22431 22434 22437 22440 22443 22446 22449 22452 22455 22458 22461 22464 22467 22470 22473 22476 22479 22482 22485 22488 22491 22494 22497 22500 22503 22506 22509 22512 22515 22518 22521 22524 22527 22530 22533 22536 22539 22542 22545 22548 22551 22554 22557 22560 22563 22566 22569 22572 22575 22578 22581 22584 22587 22590 22593 22596 22599 22602 22605 22608 22611 22614 22617 22620 22623 22626 22629 22632 22635 22638 22641 22644 22647 22650 22653 22656 22659 22662 22665 22668 22671 22674 22677 22680 22683 22686 22689 22692 22695 22698 22701 22704 22707 22710 22713 22716 22719 22722 22725 22728 22731 22734 22737 22740 22743 22746 22749 22752 22755 22758 22761 22764 22767 22770 22773 22776 22779 22782 22785 22788 22791 22794 22797 22800 22803 22806 22809 22812 22815 22818 22821 22824 22827 22830 22833 22836 22839 22842 22845 22848 22851 22854 22857 22860 22863 22866 22869 22872 22875 22878 22881 22884 22887 22890 22893 22896 22899 22902 22905 22908 22911 22914 22917 22920 22923 22926 22929 22932 22935 22938 22941 22944 22947 22950 22953 22956 22959 22962 22965 22968 22971 22974 22977 22980 22983 22986 22989 22992 22995 22998 23001 23004 23007 23010 23013 23016 23019 23022 23025 23028 23031 23034 23037 23040 23043 23046 23049 23052 23055 23058 23061 23064 23067 23070 23073 23076 23079 23082 23085 23088 23091 23094 23097 23100 23103 23106 23109 23112 23115 23118 23121 23124 23127 23130 23133 23136 23139 23142 23145 23148 23151 23154 23157 23160 23163 23166 23169 23172 23175 23178 23181 23184 23187 23190 23193 23196 23199 23202 23205 23208 23211 23214 23217 23220 23223 23226 23229 23232 23235 23238 23241 23244 23247 23250 23253 23256 23259 23262 23265 23268 23271 23274 23277 23280 23283 23286 23289 23292 23295 23298 23301 23304 23307 23310 23313 23316 23319 23322 23325 23328 23331 23334 23337 23340 23343 23346 23349 23352 23355 23358 23361 23364 23367 23370 23373 23376 23379 23382 23385 23388 23391 23394 23397 23400 23403 23406 23409 23412 23415 23418 23421 23424 23427 23430 23433 23436 23439 23442 23445 23448 23451 23454 23457 23460 23463 23466 23469 23472 23475 23478 23481 23484 23487 23490 23493 23496 23499 23502 23505 23508 23511 23514 23517 23520 23523 23526 23529 23532 23535 23538 23541 23544 23547 23550 23553 23556 23559 23562 23565 23568 23571 23574 23577 23580 23583 23586 23589 23592 23595 23598 23601 23604 23607 23610 23613 23616 23619 23622 23625 23628 23631 23634 23637 23640 23643 23646 23649 23652 23655 23658 23661 23664 23667 23670 23673 23676 23679 23682 23685 23688 23691 23694 23697 23700 23703 23706 23709 23712 23715 23718 23721 23724 23727 23730 23733 23736 23739 23742 23745 23748 23751 23754 23757 23760 23763 23766 23769 23772 23775 23778 23781 23784 23787 23790 23793 23796 23799 23802 23805 23808 23811 23814 23817 23820 23823 23826 23829 23832 23835 23838 23841 23844 23847 23850 23853 23856 23859 23862 23865 23868 23871 23874 23877 23880 23883 23886 23889 23892 23895 23898 23901 23904 23907 23910 23913 23916 23919 23922 23925 23928 23931 23934 23937 23940 23943 23946 23949 23952 23955 23958 23961 23964 23967 23970 23973 23976 23979 23982 23985 23988 23991 23994 23997 24000 24003 24006 24009 24012 24015 24018 24021 24024 24027 24030 24033 24036 24039 24042 24045 24048 24051 24054 24057 24060 24063 24066 24069 24072 24075 24078 24081 24084 24087 24090 24093 24096 24099 24102 24105 24108 24111 24114 24117 24120 24123 24126 24129 24132 24135 24138 24141 24144 24147 24150 24153 24156 24159 24162 24165 24168 24171 24174 24177 24180 24183 24186 24189 24192 24195 24198 24201 24204 24207 24210 24213 24216 24219 24222 24225 24228 24231 24234 24237 24240 24243 24246 24249 24252 24255 24258 24261 24264 24267 24270 24273 24276 24279 24282 24285 24288 24291 24294 24297 24300 24303 24306 24309 24312 24315 24318 24321 24324 24327 24330 24333 24336 24339 24342 24345 24348 24351 24354 24357 24360 24363 24366 24369 24372 24375 24378 24381 24384 24387 24390 24393 24396 24399 24402 24405 24408 24411 24414 24417 24420 24423 24426 24429 24432 24435 24438 24441 24444 24447 24450 24453 24456 24459 24462 24465 24468 24471 24474 24477 24480 24483 24486 24489 24492 24495 24498 24501 24504 24507 24510 24513 24516 24519 24522 24525 24528 24531 24534 24537 24540 24543 24546 24549 24552 24555 24558 24561 24564 24567 24570 24573 24576 24579 24582 24585 24588 24591 24594 24597 24600 24603 24606 24609 24612 24615 24618 24621 24624 24627 24630 24633 24636 24639 24642 24645 24648 24651 24654 24657 24660 24663 24666 24669 24672 24675 24678 24681 24684 24687 24690 24693 24696 24699 24702 24705 24708 24711 24714 24717 24720 24723 24726 24729 24732 24735 24738 24741 24744 24747 24750 24753 24756 24759 24762 24765 24768 24771 24774 24777 24780 24783 24786 24789 24792 24795 24798 24801 24804 24807 24810 24813 24816 24819 24822 24825 24828 24831 24834 24837 24840 24843 24846 24849 24852 24855 
        </DataArray>
        <DataArray type="UInt8" Name="types" format="ascii">
          5 5 5 5 5 5 5 5 5 5 5 5 5 5 5 5 5 5 5 5 5 5 5 5 5 5 5 5 5 5 5 5 5 5 5 5 5 5 5 5 5 5 5 5 5 5 5 5 5 5 5 5 5 5 5 5 5 5 5 5 5 5 5 5 5 5 5 5 5 5 5 5 5 5 5 5 5 5 5 5 5 5 5 5 5 5 5 5 5 5 5 5 5 5 5 5 5 5 5 5 5 5 5 5 5 5 5 5 5 5 5 5 5 5 5 5 5 5 5 5 5 5 5 5 5 5 5 5 5 5 5 5 5 5 5 5 5 5 5 5 5 5 5 5 5 5 5 5 5 5 5 5 5 5 5 5 5 5 5 5 5 5 5 5 5 5 5 5 5 5 5 5 5 5 5 5 5 5 5 5 5 5 5 5 5 5 5 5 5 5 5 5 5 5 5 5 5 5 5 5 5 5 5 5 5 5 5 5 5 5 5 5 5 5 5 5 5 5 5 5 5 5 5 5 5 5 5 5 5 5 5 5 5 5 5 5 5 5 5 5 5 5 5 5 5 5 5 5 5 5 5 5 5 5 5 5 5 5 5 5 5 5 5 5 5 5 5 5 5 5 5 5 5 5 5 5 5 5 5 5 5 5 5 5 5 5 5 5 5 5 5 5 5 5 5 5 5 5 5 5 5 5 5 5 5 5 5 5 5 5 5 5 5 5 5 5 5 5 5 5 5 5 5 5 5 5 5 5 5 5 5 5 5 5 5 5 5 5 5 5 5 5 5 5 5 5 5 5 5 5 5 5 5 5 5 5 5 5 5 5 5 5 5 5 5 5 5 5 5 5 5 5 5 5 5 5 5 5 5 5 5 5 5 5 5 5 5 5 5 5 5 5 5 5 5 5 5 5 5 5 5 5 5 5 5 5 5 5 5 5 5 5 5 5 5 5 5 5 5 5 5 5 5 5 5 5 5 5 5 5 5 5 5 5 5 5 5 5 5 5 5 5 5 5 5 5 5 5 5 5 5 5 5 5 5 5 5 5 5 5 5 5 5 5 5 5 5 5 5 5 5 5 5 5 5 5 5 5 5 5 5 5 5 5 5 5 5 5 5 5 5 5 5 5 5 5 5 5 5 5 5 5 5 5 5 5 5 5 5 5 5 5 5 5 5 5 5 5 5 5 5 5 5 5 5 5 5 5 5 5 5 5 5 5 5 5 5 5 5 5 5 5 5 5 5 5 5 5 5 5 5 5 5 5 5 5 5 5 5 5 5 5 5 5 5 5 5 5 5 5 5 5 5 5 5 5 5 5 5 5 5 5 5 5 5 5 5 5 5 5 5 5 5 5 5 5 5 5 5 5 5 5 5 5 5 5 5 5 5 5 5 5 5 5 5 5 5 5 5 5 5 5 5 5 5 5 5 5 5 5 5 5 5 5 5 5 5 5 5 5 5 5 5 5 5 5 5 5 5 5 5 5 5 5 5 5 5 5 5 5 5 5 5 5 5 5 5 5 5 5 5 5 5 5 5 5 5 5 5 5 5 5 5 5 5 5 5 5 5 5 5 5 5 5 5 5 5 5 5 5 5 5 5 5 5 5 5 5 5 5 5 5 5 5 5 5 5 5 5 5 5 5 5 5 5 5 5 5 5 5 5 5 5 5 5 5 5 5 5 5 5 5 5 5 5 5 5 5 5 5 5 5 5 5 5 5 5 5 5 5 5 5 5 5 5 5 5 5 5 5 5 5 5 5 5 5 5 5 5 5 5 5 5 5 5 5 5 5 5 5 5 5 5 5 5 5 5 5 5 5 5 5 5 5 5 5 5 5 5 5 5 5 5 5 5 5 5 5 5 5 5 5 5 5 5 5 5 5 5 5 5 5 5 5 5 5 5 5 5 5 5 5 5 5 5 5 5 5 5 5 5 5 5 5 5 5 5 5 5 5 5 5 5 5 5 5 5 5 5 5 5 5 5 5 5 5 5 5 5 5 5 5 5 5 5 5 5 5 5 5 5 5 5 5 5 5 5 5 5 5 5 5 5 5 5 5 5 5 5 5 5 5 5 5 5 5 5 5 5 5 5 5 5 5 5 5 5 5 5 5 5 5 5 5 5 5 5 5 5 5 5 5 5 5 5 5 5 5 5 5 5 5 5 5 5 5 5 5 5 5 5 5 5 5 5 5 5 5 5 5 5 5 5 5 5 5 5 5 5 5 5 5 5 5 5 5 5 5 5 5 5 5 5 5 5 5 5 5 5 5 5 5 5 5 5 5 5 5 5 5 5 5 5 5 5 5 5 5 5 5 5 5 5 5 5 5 5 5 5 5 5 5 5 5 5 5 5 5 5 5 5 5 5 5 5 5 5 5 5 5 5 5 5 5 5 5 5 5 5 5 5 5 5 5 5 5 5 5 5 5 5 5 5 5 5 5 5 5 5 5 5 5 5 5 5 5 5 5 5 5 5 5 5 5 5 5 5 5 5 5 5 5 5 5 5 5 5 5 5 5 5 5 5 5 5 5 5 5 5 5 5 5 5 5 5 5 5 5 5 5 5 5 5 5 5 5 5 5 5 5 5 5 5 5 5 5 5 5 5 5 5 5 5 5 5 5 5 5 5 5 5 5 5 5 5 5 5 5 5 5 5 5 5 5 5 5 5 5 5 5 5 5 5 5 5 5 5 5 5 5 5 5 5 5 5 5 5 5 5 5 5 5 5 5 5 5 5 5 5 5 5 5 5 5 5 5 5 5 5 5 5 5 5 5 5 5 5 5 5 5 5 5 5 5 5 5 5 5 5 5 5 5 5 5 5 5 5 5 5 5 5 5 5 5 5 5 5 5 5 5 5 5 5 5 5 5 5 5 5 5 5 5 5 5 5 5 5 5 5 5 5 5 5 5 5 5 5 5 5 5 5 5 5 5 5 5 5 5 5 5 5 5 5 5 5 5 5 5 5 5 5 5 5 5 5 5 5 5 5 5 5 5 5 5 5 5 5 5 5 5 5 5 5 5 5 5 5 5 5 5 5 5 5 5 5 5 5 5 5 5 5 5 5 5 5 5 5 5 5 5 5 5 5 5 5 5 5 5 5 5 5 5 5 5 5 5 5 5 5 5 5 5 5 5 5 5 5 5 5 5 5 5 5 5 5 5 5 5 5 5 5 5 5 5 5 5 5 5 5 5 5 5 5 5 5 5 5 5 5 5 5 5 5 5 5 5 5 5 5 5 5 5 5 5 5 5 5 5 5 5 5 5 5 5 5 5 5 5 5 5 5 5 5 5 5 5 5 5 5 5 5 5 5 5 5 5 5 5 5 5 5 5 5 5 5 5 5 5 5 5 5 5 5 5 5 5 5 5 5 5 5 5 5 5 5 5 5 5 5 5 5 5 5 5 5 5 5 5 5 5 5 5 5 5 5 5 5 5 5 5 5 5 5 5 5 5 5 5 5 5 5 5 5 5 5 5 5 5 5 5 5 5 5 5 5 5 5 5 5 5 5 5 5 5 5 5 5 5 5 5 5 5 5 5 5 5 5 5 5 5 5 5 5 5 5 5 5 5 5 5 5 5 5 5 5 5 5 5 5 5 5 5 5 5 5 5 5 5 5 5 5 5 5 5 5 5 5 5 5 5 5 5 5 5 5 5 5 5 5 5 5 5 5 5 5 5 5 5 5 5 5 5 5 5 5 5 5 5 5 5 5 5 5 5 5 5 5 5 5 5 5 5 5 5 5 5 5 5 5 5 5 5 5 5 5 5 5 5 5 5 5 5 5 5 5 5 5 5 5 5 5 5 5 5 5 5 5 5 5 5 5 5 5 5 5 5 5 5 5 5 5 5 5 5 5 5 5 5 5 5 5 5 5 5 5 5 5 5 5 5 5 5 5 5 5 5 5 5 5 5 5 5 5 5 5 5 5 5 5 5 5 5 5 5 5 5 5 5 5 5 5 5 5 5 5 5 5 5 5 5 5 5 5 5 5 5 5 5 5 5 5 5 5 5 5 5 5 5 5 5 5 5 5 5 5 5 5 5 5 5 5 5 5 5 5 5 5 5 5 5 5 5 5 5 5 5 5 5 5 5 5 5 5 5 5 5 5 5 5 5 5 5 5 5 5 5 5 5 5 5 5 5 5 5 5 5 5 5 5 5 5 5 5 5 5 5 5 5 5 5 5 5 5 5 5 5 5 5 5 5 5 5 5 5 5 5 5 5 5 5 5 5 5 5 5 5 5 5 5 5 5 5 5 5 5 5 5 5 5 5 5 5 5 5 5 5 5 5 5 5 5 5 5 5 5 5 5 5 5 5 5 5 5 5 5 5 5 5 5 5 5 5 5 5 5 5 5 5 5 5 5 5 5 5 5 5 5 5 5 5 5 5 5 5 5 5 5 5 5 5 5 5 5 5 5 5 5 5 5 5 5 5 5 5 5 5 5 5 5 5 5 5 5 5 5 5 5 5 5 5 5 5 5 5 5 5 5 5 5 5 5 5 5 5 5 5 5 5 5 5 5 5 5 5 5 5 5 5 5 5 5 5 5 5 5 5 5 5 5 5 5 5 5 5 5 5 5 5 5 5 5 5 5 5 5 5 5 5 5 5 5 5 5 5 5 5 5 5 5 5 5 5 5 5 5 5 5 5 5 5 5 5 5 5 5 5 5 5 5 5 5 5 5 5 5 5 5 5 5 5 5 5 5 5 5 5 5 5 5 5 5 5 5 5 5 5 5 5 5 5 5 5 5 5 5 5 5 5 5 5 5 5 5 5 5 5 5 5 5 5 5 5 5 5 5 5 5 5 5 5 5 5 5 5 5 5 5 5 5 5 5 5 5 5 5 5 5 5 5 5 5 5 5 5 5 5 5 5 5 5 5 5 5 5 5 5 5 5 5 5 5 5 5 5 5 5 5 5 5 5 5 5 5 5 5 5 5 5 5 5 5 5 5 5 5 5 5 5 5 5 5 5 5 5 5 5 5 5 5 5 5 5 5 5 5 5 5 5 5 5 5 5 5 5 5 5 5 5 5 5 5 5 5 5 5 5 5 5 5 5 5 5 5 5 5 5 5 5 5 5 5 5 5 5 5 5 5 5 5 5 5 5 5 5 5 5 5 5 5 5 5 5 5 5 5 5 5 5 5 5 5 5 5 5 5 5 5 5 5 5 5 5 5 5 5 5 5 5 5 5 5 5 5 5 5 5 5 5 5 5 5 5 5 5 5 5 5 5 5 5 5 5 5 5 5 5 5 5 5 5 5 5 5 5 5 5 5 5 5 5 5 5 5 5 5 5 5 5 5 5 5 5 5 5 5 5 5 5 5 5 5 5 5 5 5 5 5 5 5 5 5 5 5 5 5 5 5 5 5 5 5 5 5 5 5 5 5 5 5 5 5 5 5 5 5 5 5 5 5 5 5 5 5 5 5 5 5 5 5 5 5 5 5 5 5 5 5 5 5 5 5 5 5 5 5 5 5 5 5 5 5 5 5 5 5 5 5 5 5 5 5 5 5 5 5 5 5 5 5 5 5 5 5 5 5 5 5 5 5 5 5 5 5 5 5 5 5 5 5 5 5 5 5 5 5 5 5 5 5 5 5 5 5 5 5 5 5 5 5 5 5 5 5 5 5 5 5 5 5 5 5 5 5 5 5 5 5 5 5 5 5 5 5 5 5 5 5 5 5 5 5 5 5 5 5 5 5 5 5 5 5 5 5 5 5 5 5 5 5 5 5 5 5 5 5 5 5 5 5 5 5 5 5 5 5 5 5 5 5 5 5 5 5 5 5 5 5 5 5 5 5 5 5 5 5 5 5 5 5 5 5 5 5 5 5 5 5 5 5 5 5 5 5 5 5 5 5 5 5 5 5 5 5 5 5 5 5 5 5 5 5 5 5 5 5 5 5 5 5 5 5 5 5 5 5 5 5 5 5 5 5 5 5 5 5 5 5 5 5 5 5 5 5 5 5 5 5 5 5 5 5 5 5 5 5 5 5 5 5 5 5 5 5 5 5 5 5 5 5 5 5 5 5 5 5 5 5 5 5 5 5 5 5 5 5 5 5 5 5 5 5 5 5 5 5 5 5 5 5 5 5 5 5 5 5 5 5 5 5 5 5 5 5 5 5 5 5 5 5 5 5 5 5 5 5 5 5 5 5 5 5 5 5 5 5 5 5 5 5 5 5 5 5 5 5 5 5 5 5 5 5 5 5 5 5 5 5 5 5 5 5 5 5 5 5 5 5 5 5 5 5 5 5 5 5 5 5 5 5 5 5 5 5 5 5 5 5 5 5 5 5 5 5 5 5 5 5 5 5 5 5 5 5 5 5 5 5 5 5 5 5 5 5 5 5 5 5 5 5 5 5 5 5 5 5 5 5 5 5 5 5 5 5 5 5 5 5 5 5 5 5 5 5 5 5 5 5 5 5 5 5 5 5 5 5 5 5 5 5 5 5 5 5 5 5 5 5 5 5 5 5 5 5 5 5 5 5 5 5 5 5 5 5 5 5 5 5 5 5 5 5 5 5 5 5 5 5 5 5 5 5 5 5 5 5 5 5 5 5 5 5 5 5 5 5 5 5 5 5 5 5 5 5 5 5 5 5 5 5 5 5 5 5 5 5 5 5 5 5 5 5 5 5 5 5 5 5 5 5 5 5 5 5 5 5 5 5 5 5 5 5 5 5 5 5 5 5 5 5 5 5 5 5 5 5 5 5 5 5 5 5 5 5 5 5 5 5 5 5 5 5 5 5 5 5 5 5 5 5 5 5 5 5 5 5 5 5 5 5 5 5 5 5 5 5 5 5 5 5 5 5 5 5 5 5 5 5 5 5 5 5 5 5 5 5 5 5 5 5 5 5 5 5 5 5 5 5 5 5 5 5 5 5 5 5 5 5 5 5 5 5 5 5 5 5 5 5 5 5 5 5 5 5 5 5 5 5 5 5 5 5 5 5 5 5 5 5 5 5 5 5 5 5 5 5 5 5 5 5 5 5 5 5 5 5 5 5 5 5 5 5 5 5 5 5 5 5 5 5 5 5 5 5 5 5 5 5 5 5 5 5 5 5 5 5 5 5 5 5 5 5 5 5 5 5 5 5 5 5 5 5 5 5 5 5 5 5 5 5 5 5 5 5 5 5 5 5 5 5 5 5 5 5 5 5 5 5 5 5 5 5 5 5 5 5 5 5 5 5 5 5 5 5 5 5 5 5 5 5 5 5 5 5 5 5 5 5 5 5 5 5 5 5 5 5 5 5 5 5 5 5 5 5 5 5 5 5 5 5 5 5 5 5 5 5 5 5 5 5 5 5 5 5 5 5 5 5 5 5 5 5 5 5 5 5 5 5 5 5 5 5 5 5 5 5 5 5 5 5 5 5 5 5 5 5 5 5 5 5 5 5 5 5 5 5 5 5 5 5 5 5 5 5 5 5 5 5 5 5 5 5 5 5 5 5 5 5 5 5 5 5 5 5 5 5 5 5 5 5 5 5 5 5 5 5 5 5 5 5 5 5 5 5 5 5 5 5 5 5 5 5 5 5 5 5 5 5 5 5 5 5 5 5 5 5 5 5 5 5 5 5 5 5 5 5 5 5 5 5 5 5 5 5 5 5 5 5 5 5 5 5 5 5 5 5 5 5 5 5 5 5 5 5 5 5 5 5 5 5 5 5 5 5 5 5 5 5 5 5 5 5 5 5 5 5 5 5 5 5 5 5 5 5 5 5 5 5 5 5 5 5 5 5 5 5 5 5 5 5 5 5 5 5 5 5 5 5 5 5 5 5 5 5 5 5 5 5 5 5 5 5 5 5 5 5 5 5 5 5 5 5 5 5 5 5 5 5 5 5 5 5 5 5 5 5 5 5 5 5 5 5 5 5 5 5 5 5 5 5 5 5 5 5 5 5 5 5 5 5 5 5 5 5 5 5 5 5 5 5 5 5 5 5 5 5 5 5 5 5 5 5 5 5 5 5 5 5 5 5 5 5 5 5 5 5 5 5 5 5 5 5 5 5 5 5 5 5 5 5 5 5 5 5 5 5 5 5 5 5 5 5 5 5 5 5 5 5 5 5 5 5 5 5 5 5 5 5 5 5 5 5 5 5 5 5 5 5 5 5 5 5 5 5 5 5 5 5 5 5 5 5 5 5 5 5 5 5 5 5 5 5 5 5 5 5 5 5 5 5 5 5 5 5 5 5 5 5 5 5 5 5 5 5 5 5 5 5 5 5 5 5 5 5 5 5 5 5 5 5 5 5 5 5 5 5 5 5 5 5 5 5 5 5 5 5 5 5 5 5 5 5 5 5 5 5 5 5 5 5 5 5 5 5 5 5 5 5 5 5 5 5 5 5 5 5 5 5 5 5 5 5 5 5 5 5 5 5 5 5 5 5 5 5 5 5 5 5 5 5 5 5 5 5 5 5 5 5 5 5 5 5 5 5 5 5 5 5 5 5 5 5 5 5 5 5 5 5 5 5 5 5 5 5 5 5 5 5 5 5 5 5 5 5 5 5 5 5 5 5 5 5 5 5 5 5 5 5 5 5 5 5 5 5 5 5 5 5 5 5 5 5 5 5 5 5 5 5 5 5 5 5 5 5 5 5 5 5 5 5 5 5 5 5 5 5 5 5 5 5 5 5 5 5 5 5 5 5 5 5 5 5 5 5 5 5 5 5 5 5 5 5 5 5 5 5 5 5 5 5 5 5 5 5 5 5 5 5 5 5 5 5 5 5 5 5 5 5 5 5 5 5 5 5 5 5 5 5 5 5 5 5 5 5 5 5 5 5 5 5 5 5 5 5 5 5 5 5 5 5 5 5 5 5 5 5 5 5 5 5 5 5 5 5 5 5 5 5 5 5 5 5 5 5 5 5 5 5 5 5 5 5 5 5 5 5 5 5 5 5 5 5 5 5 5 5 5 5 5 5 5 5 5 5 5 5 5 5 5 5 5 5 5 5 5 5 5 5 5 5 5 5 5 5 5 5 5 5 5 5 5 5 5 5 5 5 5 5 5 5 5 5 5 5 5 5 5 5 5 5 5 5 5 5 5 5 5 5 5 5 5 5 5 5 5 5 5 5 5 5 5 5 5 5 5 5 5 5 5 5 5 5 5 5 5 5 5 5 5 5 5 5 5 5 5 5 5 5 5 5 5 5 5 5 5 5 5 5 5 5 5 5 5 5 5 5 5 5 5 5 5 5 5 5 5 5 5 5 5 5 5 5 5 5 5 5 5 5 5 5 5 5 5 5 5 5 5 5 5 5 5 5 5 5 5 5 5 5 5 5 5 5 5 5 5 5 5 5 5 5 5 5 5 5 5 5 5 5 5 5 5 5 5 5 5 5 5 5 5 5 5 5 5 5 5 5 5 5 5 5 5 5 5 5 5 5 5 5 5 5 5 5 5 5 5 5 5 5 5 5 5 5 5 5 5 5 5 5 5 5 5 5 5 5 5 5 5 5 5 5 5 5 5 5 5 5 5 5 5 5 5 5 5 5 5 5 5 5 5 5 5 5 5 5 5 5 5 5 5 5 5 5 5 5 5 5 5 5 5 5 5 5 5 5 5 5 5 5 5 5 5 5 5 5 5 5 5 5 5 5 5 5 5 5 5 5 5 5 5 5 5 5 5 5 5 5 5 5 5 5 5 5 5 5 5 5 5 5 5 5 5 5 5 5 5 5 5 5 5 5 5 5 5 5 5 5 5 5 5 5 5 5 5 5 5 5 5 5 5 5 5 5 5 5 5 5 5 5 5 5 5 5 5 5 5 5 5 5 5 5 5 5 5 5 5 5 5 5 5 5 5 5 5 5 5 5 5 5 5 5 5 5 5 5 5 5 5 5 5 5 5 5 5 5 5 5 5 5 5 5 5 5 5 5 5 5 5 5 5 5 5 5 5 5 5 5 5 5 5 5 5 5 5 5 5 5 5 5 5 5 5 5 5 5 5 5 5 5 5 5 5 5 5 5 5 5 5 5 5 5 5 5 5 5 5 5 5 5 5 5 5 5 5 5 5 5 5 5 5 5 5 5 5 5 5 5 5 5 5 5 5 5 5 5 5 5 5 5 5 5 5 5 5 5 5 5 5 5 5 5 5 5 5 5 5 5 5 5 5 5 5 5 5 5 5 5 5 5 5 5 5 5 5 5 5 5 5 5 5 5 5 5 5 5 5 5 5 5 5 5 5 5 5 5 5 5 5 5 5 5 5 5 5 5 5 5 5 5 5 5 5 5 5 5 5 5 5 5 5 5 5 5 5 5 5 5 5 5 5 5 5 5 5 5 5 5 5 5 5 5 5 5 5 5 5 5 5 5 5 5 5 5 5 5 5 5 5 5 5 5 5 5 5 5 5 5 5 5 5 5 5 5 5 5 5 5 5 5 5 5 5 5 5 5 5 5 5 5 5 5 5 5 5 5 5 5 5 5 5 5 5 5 5 5 5 5 5 5 5 5 5 5 5 5 5 5 5 5 5 5 5 5 5 5 5 5 5 5 5 5 5 5 5 5 5 5 5 5 5 5 5 5 5 5 5 5 5 5 5 5 5 5 5 5 5 5 5 5 5 5 5 5 5 5 5 5 5 5 5 5 5 5 5 5 5 5 5 5 5 5 5 5 5 5 5 5 5 5 5 5 5 5 5 5 5 5 5 5 5 5 5 5 5 5 5 5 5 5 5 5 5 5 5 5 5 5 5 5 5 5 5 5 5 5 5 5 5 5 5 5 5 5 5 5 5 5 5 5 5 5 5 5 5 5 5 5 5 5 5 5 5 5 5 5 5 5 5 5 5 5 5 5 5 5 5 5 5 5 5 5 5 5 5 5 5 5 5 5 5 5 5 5 5 5 5 5 5 5 5 5 5 5 5 5 5 5 5 5 5 5 5 5 5 5 5 5 5 5 5 5 5 5 5 5 5 5 5 5 5 5 5 5 5 5 5 5 5 5 5 5 5 5 5 5 5 5 5 5 5 5 5 5 5 5 5 5 5 5 5 5 5 5 5 5 5 5 5 5 5 5 5 5 5 5 5 5 5 5 5 5 5 5 5 5 5 5 5 5 5 5 5 5 5 5 5 5 5 5 5 5 5 5 5 5 5 5 5 5 5 5 5 5 5 5 5 5 5 5 5 5 5 5 5 5 5 5 5 5 5 5 5 5 5 5 5 5 5 5 5 5 5 5 5 5 5 5 5 5 5 5 5 5 5 5 5 5 5 5 5 5 5 5 5 5 5 5 5 5 5 5 5 5 5 5 5 5 5 5 5 5 5 5 5 5 5 5 5 5 5 5 5 5 5 5 5 5 5 5 5 5 5 5 5 5 5 5 5 5 5 5 5 5 5 5 5 5 5 5 5 5 5 5 5 5 5 5 5 5 5 5 5 5 5 5 5 5 5 5 5 5 5 5 5 5 5 5 5 5 5 5 5 5 5 5 5 5 5 5 5 5 5 5 5 5 5 5 5 5 5 5 5 5 5 5 5 5 5 5 5 5 5 5 5 5 5 5 5 5 5 5 5 5 5 5 5 5 5 5 5 5 5 5 5 5 5 5 5 5 5 5 5 5 5 5 5 5 5 5 5 5 5 5 5 5 5 5 5 5 5 5 5 5 5 5 5 5 5 5 5 5 5 5 5 5 5 5 5 5 5 5 5 5 5 5 5 5 5 5 5 5 5 5 5 5 5 5 5 5 5 5 5 5 5 5 5 5 5 5 5 5 5 5 5 5 5 5 5 5 5 5 5 5 5 5 5 5 5 5 5 5 5 5 5 5 5 5 5 5 5 5 5 5 5 5 5 5 5 5 5 5 5 5 5 5 5 5 5 5 5 5 5 5 5 5 5 5 5 5 5 5 5 5 5 5 5 5 5 5 5 5 5 5 5 5 5 5 5 5 5 5 5 5 5 5 5 5 5 5 5 5 5 5 5 5 5 5 5 5 5 5 5 5 5 5 5 5 5 5 5 5 5 5 5 5 5 5 5 5 5 5 5 5 5 5 5 5 5 5 5 5 5 5 5 5 5 5 5 5 5 5 5 5 5 5 5 5 5 5 5 5 5 5 5 5 5 5 5 5 5 5 5 5 5 5 5 5 5 5 5 5 5 5 5 5 5 5 5 5 5 5 5 5 5 5 5 5 5 5 5 5 5 5 5 5 5 5 5 5 5 5 5 5 5 5 5 5 5 5 5 5 5 5 5 5 5 5 5 5 5 5 5 5 5 5 5 5 5 5 5 5 5 5 5 5 5 5 5 5 5 5 5 5 5 5 5 5 5 5 5 5 5 5 5 5 5 5 5 5 5 5 5 5 5 5 5 5 5 5 5 5 5 5 5 5 5 5 5 5 5 5 5 5 5 5 5 5 5 5 5 5 5 5 5 5 5 5 5 5 5 5 5 5 5 5 5 5 5 5 5 5 5 5 5 5 5 5 5 5 5 5 5 5 5 5 5 5 5 5 5 5 5 5 5 5 5 5 5 5 5 5 5 5 5 5 5 5 5 5 5 5 5 5 5 5 5 5 5 5 5 5 5 5 5 5 5 5 5 5 5 5 5 5 5 5 5 5 5 5 5 5 5 5 5 5 5 5 5 5 5 5 5 5 5 5 5 5 5 5 5 5 5 5 5 5 5 5 5 5 5 5 5 5 5 5 5 5 5 5 5 5 5 5 5 5 5 5 5 5 5 5 5 5 5 5 5 5 5 5 5 5 5 5 5 5 5 5 5 5 5 5 5 5 5 5 5 5 5 5 5 5 5 5 5 5 5 5 5 5 5 5 5 5 5 5 5 5 5 5 5 5 5 5 5 5 5 5 5 5 5 5 5 5 5 5 5 5 5 5 5 5 5 5 5 5 5 5 5 5 5 5 5 5 5 5 5 5 5 5 5 5 5 5 5 5 5 5 5 5 5 5 5 5 5 5 5 5 5 5 5 5 5 5 5 5 5 5 5 5 5 5 5 5 5 5 5 5 5 5 5 5 5 5 5 5 5 5 5 5 5 5 5 5 5 5 5 5 5 5 5 5 5 5 5 5 5 5 5 5 5 5 5 5 5 5 5 5 5 5 5 5 5 5 5 5 5 5 5 5 5 5 5 5 5 5 5 5 5 5 5 5 5 5 5 5 5 5 5 5 5 5 5 5 5 5 5 5 5 5 5 5 5 5 5 5 5 5 5 5 5 5 5 5 5 5 5 5 5 5 5 5 5 5 5 5 5 5 5 5 5 5 5 5 5 5 5 5 5 5 5 5 5 5 5 5 5 5 5 5 5 5 5 5 5 5 5 5 5 5 5 5 5 5 5 5 5 5 5 5 5 5 5 5 5 5 5 5 5 5 5 5 5 5 5 5 5 5 5 5 5 5 5 5 5 5 5 5 5 5 5 5 5 5 5 5 5 5 5 5 5 5 5 5 5 5 5 5 5 5 5 5 5 5 5 5 5 5 5 5 5 5 5 5 5 5 5 5 5 5 5 5 5 5 5 5 5 5 5 5 5 5 5 5 5 5 5 5 5 5 5 5 5 5 5 5 5 5 5 5 5 5 5 5 5 5 5 5 5 5 5 5 5 5 5 5 5 5 5 5 5 5 5 5 5 5 5 5 5 5 5 5 5 5 5 5 5 5 5 5 5 5 5 5 5 5 5 5 5 5 5 5 5 5 5 5 5 5 5 5 5 5 5 5 5 5 5 5 5 5 5 5 5 5 5 5 5 5 5 5 5 5 5 5 5 5 5 5 5 5 5 5 5 5 5 5 5 5 5 5 5 5 5 5 5 5 5 5 5 5 5 5 5 5 5 5 5 5 5 5 5 5 5 5 5 5 5 5 5 5 5 5 5 5 5 5 5 5 5 5 5 5 5 5 5 5 5 5 5 5 5 5 5 5 5 5 5 5 5 5 5 5 5 5 5 5 5 5 5 5 5 5 5 5 5 5 5 5 5 5 5 5 5 5 5 5 5 5 5 5 5 5 5 5 5 5 5 5 5 5 5 5 5 5 5 5 5 5 5 5 5 5 5 5 5 5 5 5 5 5 5 5 5 5 5 5 5 5 5 5 5 5 5 5 5 5 5 5 5 5 5 5 5 5 5 5 5 5 5 5 5 5 5 5 5 5 5 5 5 5 5 5 5 5 5 5 5 5 5 5 5 5 5 5 5 5 5 5 5 5 5 5 5 5 5 5 5 5 5 5 5 5 5 5 5 5 5 5 5 5 5 5 5 5 5 5 5 5 5 5 5 5 5 5 5 5 5 5 5 5 5 5 5 5 5 5 5 5 5 5 5 5 5 5 5 5 5 5 5 5 5 5 5 5 5 5 5 5 5 5 5 5 5 5 5 5 5 5 5 5 5 5 5 5 5 5 5 5 5 5 5 5 5 5 5 5 5 5 5 5 5 5 5 5 5 5 5 5 5 5 5 5 5 5 5 5 5 5 5 5 5 5 5 5 5 5 5 5 5 5 5 5 5 5 5 5 5 5 5 5 5 5 5 5 5 5 5 5 5 5 5 5 5 5 5 5 5 5 5 5 5 5 5 5 5 5 5 5 5 5 5 5 5 5 5 5 5 5 5 5 5 5 5 5 5 5 5 5 5 5 5 5 5 5 5 5 5 5 5 5 5 5 5 5 5 5 5 5 5 5 5 5 5 5 5 5 5 5 5 5 5 5 5 5 5 5 5 5 5 5 5 5 5 5 5 5 5 5 5 5 5 5 5 5 5 5 5 5 5 5 5 5 5 5 5 5 5 5 5 5 5 5 5 5 5 5 5 5 5 5 5 5 5 5 5 5 5 5 5 5 5 5 5 5 5 5 5 5 5 5 5 5 5 5 5 5 5 5 5 5 5 5 5 5 5 5 5 5 5 5 5 5 5 5 5 5 5 5 5 5 5 5 5 5 5 5 5 5 5 5 5 5 5 5 5 5 5 5 5 5 5 5 5 5 5 5 5 5 5 5 5 5 5 5 5 5 5 5 5 5 5 5 5 5 5 5 5 5 5 5 5 5 5 5 5 5 5 5 5 5 5 5 5 5 5 5 5 5 5 5 5 5 5 5 5 5 5 5 5 5 5 5 5 5 5 5 5 5 5 5 5 5 5 5 5 5 5 5 5 5 5 5 5 5 5 5 5 5 5 5 5 5 5 5 5 5 5 5 5 5 5 5 5 5 5 5 5 5 5 5 5 5 5 5 5 5 5 5 5 5 5 5 5 5 5 5 5 5 5 5 5 5 5 5 5 5 5 5 5 5 5 5 5 5 5 5 5 5 5 5 5 5 5 5 5 5 5 5 5 5 5 5 5 5 5 5 5 5 5 5 5 5 5 5 5 5 5 5 5 5 5 5 5 5 5 5 5 5 5 5 5 5 5 5 5 5 5 5 5 5 5 5 5 5 5 5 5 5 5 5 5 5 5 5 5 5 5 5 5 5 5 5 5 5 5 5 5 5 5 5 5 5 5 5 5 5 5 5 5 5 5 5 5 5 5 5 5 5 5 5 5 5 5 5 5 5 5 5 5 5 5 5 5 5 5 5 5 5 5 5 5 5 5 5 5 5 5 5 5 5 5 5 5 5 5 5 5 5 5 5 5 5 5 5 5 5 5 5 5 5 5 5 5 5 5 5 5 5 5 5 5 5 5 5 5 5 5 5 5 5 5 5 5 5 5 5 5 5 5 5 5 5 5 5 5 5 5 5 5 5 5 5 5 5 5 5 5 5 5 5 5 5 5 5 5 5 5 5 5 5 5 5 5 5 5 5 5 5 5 5 5 5 5 5 5 5 5 5 5 5 5 5 5 5 5 5 5 5 5 5 5 5 5 5 5 5 5 5 5 5 5 5 5 5 5 5 5 5 5 5 5 5 5 5 5 5 5 5 5 5 5 5 5 5 5 5 5 5 5 5 5 5 5 5 5 5 5 5 5 5 5 5 5 5 5 5 5 5 5 5 5 5 5 5 5 5 5 5 5 5 5 5 5 5 5 5 5 5 5 5 5 5 5 5 5 5 5 5 5 5 5 5 5 5 5 5 5 5 5 5 5 5 5 5 5 5 5 5 5 5 5 5 5 5 5 5 5 5 5 5 5 5 5 5 5 5 5 5 5 5 5 5 5 5 5 5 5 5 5 5 5 5 5 5 5 5 5 5 5 5 5 5 5 5 5 5 5 5 5 5 5 5 5 5 5 5 5 5 5 5 5 5 5 5 5 5 5 5 5 5 5 5 5 5 5 5 5 5 5 5 5 5 5 5 5 5 5 5 5 5 5 5 5 5 5 5 5 5 5 5 5 5 5 5 5 5 5 5 5 5 5 5 5 5 5 5 5 5 5 5 5 5 5 5 5 5 5 5 5 5 5 5 5 5 5 5 5 5 5 5 5 5 5 5 5 5 5 5 5 5 5 5 5 5 5 5 5 5 5 5 5 5 5 5 5 5 5 5 5 5 5 5 5 5 5 5 5 5 5 5 5 5 5 5 5 5 5 5 5 5 5 5 5 5 5 5 5 5 5 5 5 5 5 5 5 5 5 5 5 5 5 5 5 5 5 5 5 5 5 5 5 5 5 5 5 5 5 5 5 5 5 5 5 5 5 5 5 5 5 5 5 5 5 5 5 5 5 5 5 5 5 5 5 5 5 5 5 5 5 5 5 5 5 5 5 5 5 5 5 5 5 5 5 5 5 5 5 5 5 5 5 5 5 5 5 5 5 5 5 5 5 5 5 5 5 5 5 5 5 5 5 5 5 5 5 5 5 5 5 5 5 5 5 5 5 5 5 5 5 5 5 5 5 5 5 5 5 5 5 5 5 5 5 5 5 5 5 5 5 5 5 5 5 5 5 5 5 5 5 5 5 5 5 5 5 5 5 5 5 5 5 5 5 5 5 5 5 5 5 5 5 5 5 5 5 5 5 5 5 5 5 5 5 5 5 5 5 5 5 5 5 5 5 5 5 5 5 5 5 5 5 5 5 5 5 5 5 5 5 5 5 5 5 5 5 5 5 5 5 5 5 5 5 5 5 5 5 5 5 5 5 5 5 5 5 5 5 5 5 5 5 5 5 5 5 5 5 5 5 5 5 5 5 5 5 5 5 5 5 5 5 5 5 5 5 5 5 5 5 5 5 5 5 5 5 5 5 5 5 5 5 5 5 5 5 5 5 5 5 5 5 5 5 5 5 5 5 5 5 5 5 5 5 5 5 5 5 5 5 5 5 5 5 5 5 5 5 5 5 5 5 5 5 5 5 5 5 5 5 5 5 5 5 5 5 5 5 5 5 5 5 5 5 5 5 5 5 5 5 5 5 5 5 5 5 5 5 5 5 5 5 5 5 5 5 5 5 5 5 5 5 5 5 5 5 5 5 5 5 5 5 5 5 5 5 5 5 5 5 5 5 5 5 5 5 5 5 5 5 5 5 5 5 5 5 5 5 5 5 5 5 5 5 5 5 5 5 5 5 5 5 5 5 5 5 5 5 5 5 5 5 5 5 5 5 5 5 5 5 5 5 5 5 5 5 5 5 5 5 5 5 5 5 5 5 5 5 5 5 5 5 5 5 5 5 5 5 5 5 5 5 5 5 5 5 5 5 5 5 5 5 5 5 5 5 5 5 5 5 5 5 5 5 5 5 5 5 5 5 5 5 5 5 5 5 5 5 5 5 5 5 5 5 5 5 5 5 5 5 5 5 5 5 5 5 5 5 5 5 5 5 5 5 5 5 5 5 5 5 5 5 5 5 5 5 5 5 5 5 5 5 5 5 5 5 5 5 5 5 5 5 5 5 5 5 5 5 5 5 5 5 5 5 5 5 5 5 5 5 5 5 5 5 5 5 5 5 5 5 5 5 5 5 5 5 5 5 5 5 5 5 5 5 5 5 5 5 5 5 5 5 5 5 5 5 5 5 5 5 5 5 5 5 5 5 5 5 5 5 5 5 5 5 5 5 5 5 5 5 5 5 5 5 5 5 5 5 5 5 5 5 5 5 5 5 5 5 5 5 5 5 5 5 5 5 5 5 5 5 5 5 5 5 5 5 5 5 5 5 5 5 5 5 5 5 5 5 5 5 5 5 5 5 5 5 5 5 5 5 5 5 5 5 5 5 5 5 5 5 5 5 5 5 5 5 5 5 5 5 5 5 5 5 5 5 5 5 5 5 5 5 5 5 5 5 5 5 5 5 5 5 5 5 5 5 5 5 5 5 5 5 5 5 5 5 5 5 5 5 5 5 5 5 5 5 5 5 5 5 5 5 5 5 5 5 5 5 5 5 5 5 5 5 5 5 5 5 5 5 5 5 5 5 5 5 5 5 5 5 5 5 5 5 5 5 5 5 5 5 5 5 5 5 5 5 5 5 5 5 5 5 5 5 5 5 5 5 5 5 5 5 5 5 5 5 5 5 5 5 5 5 5 5 5 5 5 5 5 5 5 5 5 5 5 5 5 5 5 5 5 5 5 5 5 5 5 5 5 5 5 5 5 5 5 5 5 5 5 5 5 5 5 5 5 5 5 5 5 5 5 5 5 5 5 5 5 5 5 5 5 5 5 5 5 5 5 5 5 5 5 5 5 5 5 5 5 5 5 5 5 5 5 5 5 5 5 5 5 5 5 5 5 5 5 5 5 5 5 5 5 5 5 5 5 5 5 5 5 5 5 5 5 5 5 5 5 5 5 
        </DataArray>
      </Cells>
      <PointData Scalars="PRESSURE1">
        <DataArray type="Float64" Name="PRESSURE1" format="ascii">
          3.000000000000e+06 3.195807631635e+06 3.391615263290e+06 3.587422894983e+06 3.783230526727e+06 3.979038158539e+06 4.174845790433e+06 4.370653422416e+06 4.566461054494e+06 4.762268686667e+06 4.958076318943e+06 4.958076644832e+06 4.958076970629e+06 4.958077296337e+06 4.958077621951e+06 4.958077947463e+06 4.958078272867e+06 4.958078598154e+06 4.958078923314e+06 4.958079248336e+06 4.958079573209e+06 4.958079897924e+06 4.958080222473e+06 4.958080546856e+06 4.958080871091e+06 4.958081195236e+06 4.958081519371e+06 4.958081843670e+06 4.762271143719e+06 4.566460442924e+06 4.370649741001e+06 4.174839038078e+06 3.979028337297e+06 3.979037919988e+06 4.157660571389e+06 4.336283214714e+06 4.514905852569e+06 4.693528487978e+06 4.872151122023e+06 5.050773755217e+06 5.229396387830e+06 5.408019020035e+06 5.586641651941e+06 5.765264283618e+06 5.943886915118e+06 5.943942488384e+06 5.943998061807e+06 5.944053635373e+06 5.944109209087e+06 5.944164782940e+06 5.944220356912e+06 5.944275930976e+06 5.944331505104e+06 5.944387079272e+06 5.944442653452e+06 5.944498227632e+06 5.944553801793e+06 5.944609375929e+06 5.944664950029e+06 5.944720524092e+06 5.944776098111e+06 5.944831672085e+06 5.944887246014e+06 5.944942819900e+06 5.944998393742e+06 5.945053967544e+06 5.945109541304e+06 5.945165115025e+06 5.945220688709e+06 5.945276262355e+06 5.945331835967e+06 5.945387409542e+06 5.945442983085e+06 5.945498556595e+06 5.945554130072e+06 5.761456996721e+06 5.577359863404e+06 5.393262730119e+06 5.209165596866e+06 5.025068463649e+06 4.840971330464e+06 4.656874197309e+06 4.472777064185e+06 4.288679931091e+06 4.104582798025e+06 3.920485664982e+06 3.736388531960e+06 3.552291398955e+06 3.368194265963e+06 3.184097132979e+06 3.000000000000e+06 3.000000000000e+06 3.000000000000e+06 3.000000000000e+06 3.000000000000e+06 3.000000000000e+06 3.000000000000e+06 3.000000000000e+06 3.000000000000e+06 3.000000000000e+06 3.000000000000e+06 3.000000000000e+06 3.000000000000e+06 3.000000000000e+06 3.000000000000e+06 3.000000000000e+06 3.000000000000e+06 3.000000000000e+06 3.000000000000e+06 3.000000000000e+06 3.000000000000e+06 3.000000000000e+06 3.000000000000e+06 3.000000000000e+06 3.000000000000e+06 3.000000000000e+06 3.000000000000e+06 3.000000000000e+06 3.000000000000e+06 3.000000000000e+06 3.000000000000e+06 3.000000000000e+06 3.000000000000e+06 3.000000000000e+06 3.000000000000e+06 3.000000000000e+06 3.000000000000e+06 3.000000000000e+06 3.000000000000e+06 3.000000000000e+06 3.000000000000e+06 3.000000000000e+06 3.000000000000e+06 3.000000000000e+06 3.000000000000e+06 3.000000000000e+06 3.000000000000e+06 5.824546053822e+06 3.123741881085e+06 3.121249126444e+06 4.830328185599e+06 4.803611660337e+06 4.800841846043e+06 3.148016484766e+06 3.271740485886e+06 5.674790481562e+06 5.795400926413e+06 3.150906102326e+06 4.812390583170e+06 3.275253414899e+06 4.672285149877e+06 4.638201917548e+06 4.691917329940e+06 4.803284889520e+06 4.658439685155e+06 4.796476827023e+06 4.793747517520e+06 4.792345353208e+06 4.791172346460e+06 4.790205006126e+06 4.790239023144e+06 4.792157679968e+06 4.795431162140e+06 4.798062848890e+06 4.798008294420e+06 4.794176979348e+06 4.788775211550e+06 4.457865237141e+06 4.546029200547e+06 4.256173124061e+06 4.068623214843e+06 4.597443363476e+06 3.164660427466e+06 3.169893190093e+06 3.168377890227e+06 3.165603153661e+06 3.163361065997e+06 3.161982986793e+06 3.161373412931e+06 3.161300725685e+06 3.161495924614e+06 3.161744150184e+06 3.161928710519e+06 3.161998721597e+06 3.161905336996e+06 3.161590042876e+06 3.161075890188e+06 3.160558331705e+06 3.160313201237e+06 3.160467571903e+06 3.160905501164e+06 3.161405516542e+06 3.161812917292e+06 3.162082717300e+06 3.162234663635e+06 3.162308218398e+06 3.162339201273e+06 3.162351098889e+06 3.162355651462e+06 3.162357414101e+06 3.162357972135e+06 3.162358132661e+06 3.162358344584e+06 3.162358367295e+06 3.162357130070e+06 3.162352071959e+06 3.162334669709e+06 3.162278890368e+06 3.162124613510e+06 3.161773501477e+06 3.161143827960e+06 3.160334480385e+06 3.160136462970e+06 3.162020115742e+06 3.164815646859e+06 3.458583140395e+06 3.648631694413e+06 3.833062273834e+06 4.015646658531e+06 4.198326696360e+06 4.381631908504e+06 4.565540533119e+06 4.749719289498e+06 4.933600294976e+06 5.116886958773e+06 5.300875321966e+06 5.489448930354e+06 5.781553599940e+06 5.783157724218e+06 5.783230074619e+06 5.781460136611e+06 5.780034329038e+06 5.780099063355e+06 5.781257425955e+06 5.782479097321e+06 5.783157116027e+06 5.783302100332e+06 5.783173493943e+06 5.782982840209e+06 5.782830845013e+06 5.782748959445e+06 5.782735919220e+06 5.782773203845e+06 5.782833560395e+06 5.782886096047e+06 5.782900053940e+06 5.782884051787e+06 5.782954056968e+06 5.783110955487e+06 5.782484633167e+06 5.778849967183e+06 5.770083604569e+06 5.757358836661e+06 5.756817949920e+06 5.543479401834e+06 5.319790722548e+06 5.141771374659e+06 4.978711755457e+06 4.810083096275e+06 4.629287026918e+06 4.444966601309e+06 4.267706421481e+06 4.088309714429e+06 5.585041817411e+06 5.389487702411e+06 5.205255660780e+06 5.065547481264e+06 5.610026026502e+06 5.620973463889e+06 5.622368415299e+06 4.931122420405e+06 5.621402743541e+06 5.621119109242e+06 5.621299935357e+06 5.621299114268e+06 5.621095510054e+06 5.620838871774e+06 5.620623832918e+06 5.620509736928e+06 5.620544295652e+06 5.620755580676e+06 5.621126111898e+06 5.621533838217e+06 5.621631199430e+06 5.620745743409e+06 5.618216003944e+06 5.614477076848e+06 5.612015985286e+06 5.613748888184e+06 5.619251814021e+06 5.623634129213e+06 5.619212756575e+06 5.600551929966e+06 3.467636249425e+06 3.676814975718e+06 3.883346830557e+06 4.080879321504e+06 4.276306735184e+06 4.476231600583e+06 3.325137338250e+06 3.345875174209e+06 3.341640407731e+06 3.334447220274e+06 3.328653255812e+06 3.324802078738e+06 3.322713013832e+06 3.322050131674e+06 3.322287084084e+06 3.322863088344e+06 3.323390565987e+06 3.323673324575e+06 3.323579351812e+06 3.322920471022e+06 3.321570971777e+06 3.319858021984e+06 3.318633965465e+06 3.318613128915e+06 3.319713560059e+06 3.321254623467e+06 3.322628057180e+06 3.323599065856e+06 3.324183416680e+06 3.324487033617e+06 3.324625019487e+06 3.324682191202e+06 3.324705303821e+06 3.324714407040e+06 3.324717048136e+06 3.324716983869e+06 3.324716899464e+06 3.324717834940e+06 3.324718461623e+06 3.324714219113e+06 3.324691315398e+06 3.324613945332e+06 3.324410137081e+06 3.323949934982e+06 3.323029893628e+06 3.321503016347e+06 3.319444618821e+06 3.319813269123e+06 3.328561674003e+06 4.635209958105e+06 4.460346039693e+06 4.624164388673e+06 4.638548657587e+06 4.642173192889e+06 4.637936625557e+06 4.629551740548e+06 4.622511441629e+06 4.620834317821e+06 4.622722054417e+06 4.625080850493e+06 4.627138262379e+06 4.629456550137e+06 4.461769438416e+06 3.348440760004e+06 3.563497657568e+06 3.502248182702e+06 3.475687767065e+06 3.749114332127e+06 3.928895426073e+06 4.109107198744e+06 3.675602101843e+06 3.623373280168e+06 4.290993918121e+06 3.846219897899e+06 4.021103002402e+06 4.200615777984e+06 3.770535693367e+06 4.474455235487e+06 4.383188897162e+06 4.659009642174e+06 4.843550776290e+06 5.026418813940e+06 5.206890048483e+06 5.389980822922e+06 5.453601766438e+06 5.288780372446e+06 5.472606172763e+06 5.350524771858e+06 5.119117558581e+06 5.213130138790e+06 4.568181232602e+06 4.754562931122e+06 4.939682690716e+06 5.040933348708e+06 3.474334599130e+06 3.607022588058e+06 3.710328715870e+06 3.481135202155e+06 3.483817190862e+06 3.485479078788e+06 3.486328058490e+06 3.486787956166e+06 3.487007624987e+06 3.487076953779e+06 3.487086302888e+06 3.487084321550e+06 3.487083271122e+06 3.487085155042e+06 3.487089345536e+06 3.487090790831e+06 3.487080912720e+06 3.487048295732e+06 3.486970417148e+06 3.486789024259e+06 3.486371942810e+06 3.485492686877e+06 3.483877449612e+06 3.481319846004e+06 3.477848808314e+06 3.474271862808e+06 3.472473856843e+06 3.473942382417e+06 3.477848077917e+06 3.481731505665e+06 3.484044128580e+06 3.484899125071e+06 3.484831612003e+06 3.484134969687e+06 3.483067848735e+06 3.482124583871e+06 3.482189098716e+06 3.484295913599e+06 3.488965156402e+06 3.496411812231e+06 3.507798007127e+06 5.463514078365e+06 5.324478654953e+06 5.448143054380e+06 5.438813392831e+06 5.441472632290e+06 5.450283012376e+06 5.457083226216e+06 5.459794096502e+06 5.459911138161e+06 5.459176199252e+06 5.458414702322e+06 5.457912462740e+06 5.457732934537e+06 5.457844892557e+06 5.458187670096e+06 5.458706256986e+06 5.459323645508e+06 5.459767709224e+06 5.459368435687e+06 5.458163669044e+06 5.459620945655e+06 5.464998283043e+06 5.465102347295e+06 5.438040572779e+06 5.155165857319e+06 3.643357537021e+06 3.715724213065e+06 3.525015309570e+06 3.550010690341e+06 3.789194431821e+06 3.720586631422e+06 3.685083796689e+06 3.990401984156e+06 4.180660102450e+06 4.374058746581e+06 4.445689366332e+06 4.481066171262e+06 4.267829871817e+06 4.329868149840e+06 4.093934048503e+06 3.913837110025e+06 4.182690161540e+06 4.028141496123e+06 3.861036126371e+06 3.665862573225e+06 3.831840540083e+06 3.654962058170e+06 3.821533207793e+06 3.646967602497e+06 3.641994391329e+06 3.812847837473e+06 3.801303237314e+06 4.493163376432e+06 4.356191825478e+06 4.246535204279e+06 4.130518295467e+06 3.987847067542e+06 4.489278019922e+06 4.475183292964e+06 4.455848619178e+06 4.447583369338e+06 4.452151418019e+06 4.456645034829e+06 4.459756623467e+06 4.461410155430e+06 3.640990344340e+06 3.798026237588e+06 3.642294892276e+06 3.644116243111e+06 3.645490875374e+06 3.645978752973e+06 3.645290348785e+06 3.642841824699e+06 3.636743445967e+06 3.627290952603e+06 3.620399316909e+06 3.621346215739e+06 3.628386214368e+06 3.636029191467e+06 3.641684867638e+06 3.645455930826e+06 3.647614497886e+06 3.648672970036e+06 3.649153805756e+06 3.649379817966e+06 3.649487818304e+06 3.649528082478e+06 3.649528387118e+06 3.649512548936e+06 3.649496065208e+06 3.649481755153e+06 3.649473313245e+06 3.649488328672e+06 3.649505164430e+06 3.649357088498e+06 3.648840480141e+06 3.648057509283e+06 3.647003339166e+06 3.644074043639e+06 3.800158985779e+06 4.353807683190e+06 4.234465988116e+06 4.105239500857e+06 3.971997656759e+06 3.994807558154e+06 3.960830695622e+06 3.949997636122e+06 3.955637920595e+06 3.803290385117e+06 3.805724220640e+06 3.806833758785e+06 3.806336266131e+06 3.804187957458e+06 3.800065792107e+06 3.784269682364e+06 3.763190492470e+06 3.756528804853e+06 3.768844905088e+06 3.785923943582e+06 3.796475534765e+06 3.803950037854e+06 3.808384030524e+06 3.810473024089e+06 3.811364507282e+06 3.811804869209e+06 3.812049435508e+06 3.812158078072e+06 3.812168532182e+06 3.812128034497e+06 3.812073698471e+06 3.812011772549e+06 3.811935165433e+06 3.811893745326e+06 3.812003683976e+06 3.812177866444e+06 3.811754408717e+06 3.810381536369e+06 3.809628095012e+06 3.810240023807e+06 4.216352516128e+06 4.093080769449e+06 3.961598324696e+06 3.933061259893e+06 4.109670021734e+06 4.291008233591e+06 4.475850805103e+06 3.835512838963e+06 4.664305328739e+06 4.854711785039e+06 4.964726336267e+06 4.336008076204e+06 4.178651345948e+06 4.129009777870e+06 4.080328957302e+06 4.106467918075e+06 4.305117821195e+06 4.257369960901e+06 4.278225969454e+06 4.119155251277e+06 4.287440181035e+06 4.126080056513e+06 3.965810339921e+06 4.292517053449e+06 4.294957251859e+06 4.129791715548e+06 3.967954170709e+06 4.294458109928e+06 4.130714316277e+06 3.967782947894e+06 3.965090558859e+06 4.127962801719e+06 4.288083137960e+06 4.119746800027e+06 3.961392244039e+06 3.965830506993e+06 3.906862157396e+06 3.878084676946e+06 3.881710505784e+06 3.934090593936e+06 3.947679264895e+06 3.960820514921e+06 3.969351194258e+06 3.972878892582e+06 3.973963206138e+06 3.974520699989e+06 3.974954964824e+06 3.975199810478e+06 3.975247522872e+06 3.975171024565e+06 3.975047690030e+06 3.974900596632e+06 3.974687326510e+06 3.974399515552e+06 3.974300460731e+06 3.974880028763e+06 3.975748807059e+06 3.974000070385e+06 3.969655292287e+06 3.971859064385e+06 4.110373986268e+06 4.262204609707e+06 4.368089371353e+06 4.224724830035e+06 4.125302806352e+06 3.970948931038e+06 4.092443122004e+06 4.213771995949e+06 4.364754170588e+06 4.556971036467e+06 4.755306578318e+06 4.114487436887e+06 4.255533217992e+06 4.132112206701e+06 4.137952981479e+06 4.137744880402e+06 4.137730184151e+06 4.138383507462e+06 4.138902487126e+06 4.139051890815e+06 4.138940745241e+06 4.138717226223e+06 4.138454278499e+06 4.138092927017e+06 4.137461998522e+06 4.136543724440e+06 4.136397840714e+06 4.138976311105e+06 4.143006731604e+06 4.133586797052e+06 4.118378379877e+06 5.291341106929e+06 5.095920257509e+06 5.259545609510e+06 5.254565418202e+06 5.275078752202e+06 5.292175942042e+06 5.298857031752e+06 5.298830184005e+06 5.297247837036e+06 5.295771533051e+06 5.294758842130e+06 5.294280769182e+06 5.294272127631e+06 5.294649087798e+06 5.295368076058e+06 5.296449501678e+06 5.297844123569e+06 5.298788095869e+06 5.296218219421e+06 5.289936906562e+06 5.298925607561e+06 5.320561403632e+06 5.333443494948e+06 5.243295034658e+06 5.069854389510e+06 3.798487148938e+06 3.782708364554e+06 3.989951188237e+06 4.133179785066e+06 4.906156405028e+06 5.066506008708e+06 5.198299872101e+06 5.160045369932e+06 5.064280842713e+06 4.915227735578e+06 5.026636202521e+06 5.083115828099e+06 5.125877303696e+06 5.143231798122e+06 5.139952185679e+06 5.135632887363e+06 5.132891371605e+06 5.131054827487e+06 5.130134861300e+06 5.129898118874e+06 5.130179000470e+06 5.130919067410e+06 5.132204912972e+06 5.134327907858e+06 5.137674118632e+06 5.141138205851e+06 5.128946838948e+06 5.096310237311e+06 4.980266424683e+06 4.298160585243e+06 4.449717095809e+06 4.765165208588e+06 4.876961399938e+06 4.569371542456e+06 4.381141054830e+06 4.197219136611e+06 4.016054568224e+06 3.920531891844e+06 4.100637335035e+06 4.194999136885e+06 4.285611763443e+06 4.469132692840e+06 4.371487195728e+06 4.290012525345e+06 4.234373020252e+06 4.267981292209e+06 4.662277918728e+06 4.546189012372e+06 4.444017355279e+06 4.362868093825e+06 4.328930619000e+06 4.307237708983e+06 4.296940125185e+06 4.297030944933e+06 4.300042185510e+06 4.301670168711e+06 4.302444871815e+06 4.302912594805e+06 4.303318977313e+06 4.303673709196e+06 4.303819389891e+06 4.303450452384e+06 4.302222836937e+06 4.301066254425e+06 4.304311479299e+06 4.312398642869e+06 4.747549315972e+06 4.583562905170e+06 4.510990623143e+06 4.867764168495e+06 4.669651491289e+06 4.946823469868e+06 5.012624758101e+06 4.987896002627e+06 4.430535677219e+06 4.576017590614e+06 4.732189788771e+06 4.858074044750e+06 4.536876781694e+06 4.483879647150e+06 4.669742899531e+06 4.451873436909e+06 4.608469077615e+06 4.450217886035e+06 4.564306364177e+06 4.462261724815e+06 4.465862237818e+06 4.467155744079e+06 4.467783914569e+06 4.468303195697e+06 4.468873561115e+06 4.469448275232e+06 4.469777195021e+06 4.469080163382e+06 4.465252023583e+06 4.460792302886e+06 4.477303243874e+06 4.525282452093e+06 4.697780841906e+06 4.775709399914e+06 4.666136843584e+06 4.595877195190e+06 4.622324242477e+06 4.637419248917e+06 4.637591855321e+06 4.636327874862e+06 4.635195908457e+06 4.634336628890e+06 4.633726814448e+06 4.633279788911e+06 4.632788591976e+06 4.631748644344e+06 4.628736472219e+06 4.798538857453e+06 4.681900477015e+06 4.973645590188e+06 4.809070921433e+06 4.969929177507e+06 4.801014053792e+06 4.966679167747e+06 4.799487657583e+06 4.799204730899e+06 4.799332475983e+06 4.965277105345e+06 4.964843133909e+06 4.799794737897e+06 4.964980620307e+06 4.965577461879e+06 4.966711565351e+06 4.800598975693e+06 4.801996635703e+06 4.968713157343e+06 4.972525780580e+06 4.804354146926e+06 4.809094149389e+06 4.980998080727e+06 5.003725940047e+06 4.821810118753e+06 4.753577652661e+06 4.945688828364e+06 4.869625929208e+06 5.154223674720e+06 5.350371030596e+06 5.546518386558e+06 5.742665742593e+06 5.938813098704e+06 6.134960454879e+06 6.331107811116e+06 6.527255167405e+06 6.723402523740e+06 6.919549880115e+06 6.919550906527e+06 6.919551932906e+06 6.919552959255e+06 6.919553985575e+06 6.919555011867e+06 6.919556038134e+06 6.919557064377e+06 6.919558090603e+06 6.919559116815e+06 6.919560143019e+06 6.919561169221e+06 6.919562195428e+06 6.919563221650e+06 6.919564247890e+06 6.919565274161e+06 6.741248599203e+06 6.562931924193e+06 6.384615249123e+06 6.206298573978e+06 6.027981898742e+06 5.849665223395e+06 5.671348547909e+06 5.493031872248e+06 5.314715196367e+06 5.136398520207e+06 5.082048587760e+06 6.793352284601e+06 6.774678928460e+06 5.106201191741e+06 6.764980324027e+06 6.621562515003e+06 6.639500395870e+06 5.233610239441e+06 6.779386043310e+06 6.667071103034e+06 6.454385634560e+06 6.529653558905e+06 6.275393178622e+06 6.092636293576e+06 5.912430718797e+06 5.738473349098e+06 5.568547678771e+06 5.391119425187e+06 5.172536245716e+06 6.765220082738e+06 6.630470022901e+06 6.752685711061e+06 6.749288994680e+06 6.751455516903e+06 6.754176629306e+06 6.756804605868e+06 6.758894960313e+06 6.758032766583e+06 6.749766076127e+06 6.735180737097e+06 6.738977112135e+06 5.122477238652e+06 5.127192249650e+06 5.125232770958e+06 5.122328160430e+06 5.120405437997e+06 5.119696655774e+06 5.119651354533e+06 5.119176379054e+06 5.117409619863e+06 5.115102719633e+06 5.114609101196e+06 5.119104304164e+06 5.134039402637e+06 5.315737095806e+06 5.483068366818e+06 5.281158297193e+06 5.433592068946e+06 5.268828593685e+06 5.416188772424e+06 5.635621218038e+06 5.555487134723e+06 5.551239106714e+06 5.268059717643e+06 5.413610329183e+06 5.549326256103e+06 5.273473990696e+06 5.279329631933e+06 5.281169443810e+06 5.280413268572e+06 5.280487769073e+06 5.283079203935e+06 5.288816298592e+06 5.296913615928e+06 5.421791865139e+06 5.557276752692e+06 5.794893390663e+06 5.675296575709e+06 5.679061839810e+06 5.679420310056e+06 5.972697584441e+06 6.162653081603e+06 6.353076649931e+06 6.452102912598e+06 5.437745657414e+06 5.445333499619e+06 5.441351064115e+06 5.438524013525e+06 5.439636529866e+06 5.446176703539e+06 5.459026633907e+06 5.302495878864e+06 5.478887176608e+06 5.282906607517e+06 5.579736989182e+06 5.699899222549e+06 6.579472127707e+06 6.449034267395e+06 6.248019647493e+06 6.046374071006e+06 5.844261122224e+06 5.635607736422e+06 5.425955598702e+06 5.625475042164e+06 5.605181455839e+06 5.595537878818e+06 5.591977025987e+06 5.596365250582e+06 5.609601468327e+06 5.633848776335e+06 6.515711583328e+06 6.568181475723e+06 6.598537029043e+06 6.602053299121e+06 6.597160519984e+06 6.590831401442e+06 6.585831964034e+06 6.579197070243e+06 6.572416043056e+06 6.589679084547e+06 6.369583172568e+06 6.158218900255e+06 5.955101137547e+06 5.747865221796e+06 5.506866876879e+06 5.674660750467e+06 5.871555389561e+06 6.063587738632e+06 6.268053530551e+06 6.351835394220e+06 6.458702531063e+06 6.454742094714e+06 6.444686745493e+06 6.428831381725e+06 6.420885125708e+06 6.417101141256e+06 6.398168754416e+06 6.365282467290e+06 5.836957206165e+06 5.783762747260e+06 5.808240775269e+06 6.038550342024e+06 5.916251618374e+06 6.245038601068e+06 6.099115541977e+06 5.931787693456e+06 5.839398071299e+06 5.735750610233e+06 6.201081137769e+06 5.996390895277e+06 5.864448145404e+06 6.253643276961e+06 5.805304260305e+06 5.767905042262e+06 6.263883209163e+06 5.753676471120e+06 6.237525282506e+06 5.740586572276e+06 5.739584700971e+06 5.750226366064e+06 5.771753289825e+06 5.809639040191e+06 5.979616457860e+06 6.150235810595e+06 5.926965987592e+06 6.056566945088e+06 6.182381696357e+06 6.320497298654e+06 5.900447864127e+06 5.883031491713e+06 5.874035026568e+06 6.044018165248e+06 6.026218134970e+06 6.006553914541e+06 6.171418213686e+06 6.151221086186e+06 6.303929650631e+06 6.280738007008e+06 6.117716565512e+06 5.985947792672e+06 6.043267557811e+06 6.105858758243e+06 6.147141062701e+06 6.093653752446e+06 5.945124514891e+06 5.892275992458e+06 6.018123769788e+06 5.924125269926e+06 5.887009046901e+06 7.117612964471e+06 7.315660654738e+06 7.513708344968e+06 7.711756035167e+06 7.909803725341e+06 8.102451960326e+06 8.295100195294e+06 8.487748430248e+06 8.680396665188e+06 8.873044900118e+06 9.065693135038e+06 9.258341369950e+06 9.450989604855e+06 9.643637839753e+06 9.836286074646e+06 1.001583661175e+07 1.019538714885e+07 1.037493768594e+07 1.055448822303e+07 1.073403876012e+07 1.091358929721e+07 1.109313983429e+07 1.127269037137e+07 1.145224090845e+07 1.163179144552e+07 1.181134198260e+07 1.181134198262e+07 1.161437911778e+07 1.141741625294e+07 1.122045338810e+07 1.102349052325e+07 1.082652765840e+07 1.063567989475e+07 1.044483213110e+07 1.025398436745e+07 1.006313660379e+07 9.872288840123e+06 9.681441076453e+06 9.490593312778e+06 9.299745549097e+06 9.108897785408e+06 8.918050021711e+06 8.716440704116e+06 8.514831386510e+06 8.313222068888e+06 8.111612751250e+06 7.910003433590e+06 7.731265568479e+06 7.552527703345e+06 7.373789838186e+06 7.195051972995e+06 7.016314107768e+06 6.837576242497e+06 6.658838377174e+06 6.480100511790e+06 6.301362646331e+06 6.122624780781e+06 8.829389468497e+06 9.758413452877e+06 8.959015061476e+06 7.909997847503e+06 7.909992261437e+06 7.909986675392e+06 7.909981089370e+06 7.909975503372e+06 7.909969917398e+06 7.909964331446e+06 7.909958745515e+06 7.909953159603e+06 7.909947573708e+06 7.909941987826e+06 7.909936401955e+06 7.909930816092e+06 7.909925230234e+06 7.909919644377e+06 7.909914058519e+06 7.909908472658e+06 7.909902886792e+06 7.909897300916e+06 7.909891715030e+06 7.909886129132e+06 7.909880543222e+06 7.909874957297e+06 7.909869371357e+06 7.909863785401e+06 7.909858199427e+06 7.909852613436e+06 7.909847027428e+06 7.909841441401e+06 7.909835855356e+06 7.909830269291e+06 7.713402655253e+06 7.516975041238e+06 7.320547427244e+06 7.124119813274e+06 6.927692199330e+06 6.731264585416e+06 6.534836971531e+06 6.338409357677e+06 6.141981743856e+06 7.785101866778e+06 6.070197179500e+06 6.091260873891e+06 6.095589852830e+06 7.759990927572e+06 7.632266039947e+06 6.247732838956e+06 6.222555495193e+06 6.086774659654e+06 6.203116033319e+06 6.419549426925e+06 6.348978043743e+06 6.602381853647e+06 6.785157071027e+06 6.961406444655e+06 7.130941203090e+06 7.298416692756e+06 7.475080562013e+06 7.694188560412e+06 6.097551853998e+06 6.241205107813e+06 6.104092019906e+06 6.105666411439e+06 6.106407206870e+06 6.107806748370e+06 6.109332605082e+06 6.109665735969e+06 6.108401035960e+06 6.106329553060e+06 6.104400462071e+06 6.103289334588e+06 6.103306529752e+06 6.104273900171e+06 6.105804413832e+06 6.107602568058e+06 6.109310180253e+06 6.110077826775e+06 6.109028833505e+06 6.106758176025e+06 6.105377920084e+06 6.106803756081e+06 6.111518744495e+06 6.118095236375e+06 6.123681276013e+06 6.124278269728e+06 6.115275710491e+06 6.275219046483e+06 7.742382711407e+06 7.736515057312e+06 7.737889516997e+06 7.740773625703e+06 7.743016493082e+06 7.744152475666e+06 7.744435842866e+06 7.744344670669e+06 7.744206365895e+06 7.744035326318e+06 7.743722150069e+06 7.743262946414e+06 7.742765781797e+06 7.742382605922e+06 7.742269839780e+06 7.742507131588e+06 7.742997210108e+06 7.743484580018e+06 7.743713456328e+06 7.743600749219e+06 7.743332106309e+06 7.743318397640e+06 7.744130282596e+06 7.745960088645e+06 7.747336743706e+06 7.744578952190e+06 7.731340762846e+06 7.548584930045e+06 7.381994394634e+06 7.579923073197e+06 7.427413587215e+06 7.587922890013e+06 7.232342481494e+06 7.308174937619e+06 7.437986530414e+06 7.305594675622e+06 7.584709172089e+06 7.431426975383e+06 7.578984737664e+06 7.415438817251e+06 7.576260107715e+06 7.576264879276e+06 7.577102048010e+06 7.577776416875e+06 7.577583189939e+06 7.576517452952e+06 7.575113767474e+06 7.574128172690e+06 7.574054522235e+06 7.574828719372e+06 7.576049127949e+06 7.577307199924e+06 7.578257519537e+06 7.578688440453e+06 7.578831123061e+06 7.579124041310e+06 7.579230149920e+06 7.577998207401e+06 7.574388653099e+06 7.568141935756e+06 7.560603799406e+06 7.406794602197e+06 7.408042782606e+06 7.409920941691e+06 7.412198525174e+06 7.412720463602e+06 7.411148431615e+06 7.408254955264e+06 7.405543387491e+06 7.404595263059e+06 7.405746239823e+06 7.408065813133e+06 7.410613560782e+06 7.412772163868e+06 7.413889095306e+06 7.413581538384e+06 7.413328462912e+06 7.414317680571e+06 7.414420797143e+06 7.411168766434e+06 7.403175919797e+06 7.389936674136e+06 7.293437587929e+06 7.080743164928e+06 7.191766623437e+06 7.172378577273e+06 6.916531564381e+06 6.733445374320e+06 6.536933629757e+06 6.445512378418e+06 7.557154867560e+06 7.372264955692e+06 7.267223990143e+06 7.143758389422e+06 7.222310503988e+06 7.239372480038e+06 7.240017696953e+06 7.246658852630e+06 7.249699560653e+06 7.248178767053e+06 7.243394527022e+06 7.237256666037e+06 7.233381189599e+06 7.234555107936e+06 7.238791982989e+06 7.243348459820e+06 7.247463686670e+06 7.250405706348e+06 7.250546860731e+06 7.246482258686e+06 7.247185417651e+06 7.251500659955e+06 7.250653206393e+06 7.244396278369e+06 7.229047439161e+06 7.204737246896e+06 7.580011685774e+06 7.049679721490e+06 7.047818154492e+06 6.887432984325e+06 7.437730592390e+06 7.226098107263e+06 7.017498934877e+06 6.818094959201e+06 6.617940819945e+06 6.414413585447e+06 6.306718045524e+06 6.311092853717e+06 6.300332036663e+06 6.284815577916e+06 6.270675402276e+06 6.263735028961e+06 6.264755801122e+06 6.270853485256e+06 6.276063190722e+06 6.276012767969e+06 6.272467316283e+06 6.268453403772e+06 6.264746578924e+06 6.261669215352e+06 6.260102775686e+06 6.261191952943e+06 6.264916841496e+06 6.269995147325e+06 6.274861101131e+06 6.276640504455e+06 6.273714473203e+06 6.269437878484e+06 6.267519665777e+06 6.267860926724e+06 6.265389405872e+06 7.349997635240e+06 7.170020615608e+06 7.106168931509e+06 6.902772022524e+06 6.970680734829e+06 6.711897776497e+06 6.793030674819e+06 6.498038827768e+06 6.642946463528e+06 6.518624749698e+06 6.495729189471e+06 6.471220245708e+06 6.438841736780e+06 6.418936911795e+06 6.415400815666e+06 6.425415265905e+06 6.442203734323e+06 6.447814540237e+06 6.440461020758e+06 6.433241812707e+06 6.426845393669e+06 6.420795617462e+06 6.415425172919e+06 6.413803656532e+06 6.418530841012e+06 6.427282650833e+06 6.437203221024e+06 6.447234120704e+06 6.445672075163e+06 6.434148235696e+06 6.427479338852e+06 6.428353081180e+06 6.436063520059e+06 7.016094526885e+06 7.050510026600e+06 7.080498203124e+06 6.836797211594e+06 6.694767780769e+06 6.683497251680e+06 7.090375818330e+06 7.090351847368e+06 7.090360660025e+06 7.065725978161e+06 7.087898043396e+06 7.091411483336e+06 7.087589764505e+06 7.081750047112e+06 7.075063234655e+06 7.067151651873e+06 7.058120164415e+06 7.059992569052e+06 7.072408925033e+06 7.082697691545e+06 7.089522465312e+06 7.089645444474e+06 7.079508800548e+06 7.057380529980e+06 6.864393428658e+06 6.908337517320e+06 6.959695580870e+06 6.915425454237e+06 6.691889276828e+06 6.617291927249e+06 6.803429342799e+06 6.570616936234e+06 6.727800616194e+06 6.553697060945e+06 6.666229631516e+06 6.792809198181e+06 6.942071052650e+06 6.564447118501e+06 6.684862633014e+06 6.818314660856e+06 6.943471432462e+06 6.711959068481e+06 6.832394093837e+06 6.910366089100e+06 6.932724603842e+06 6.940581324998e+06 6.593376972441e+06 6.776432510012e+06 6.814677530012e+06 6.638903494881e+06 6.613338771942e+06 6.784634241250e+06 6.600563585311e+06 6.591339601731e+06 6.582657826267e+06 6.932552332199e+06 6.768545720603e+06 6.923664634373e+06 6.757693491552e+06 6.915118435345e+06 6.748020694807e+06 6.572752871825e+06 6.736448748409e+06 6.905479533262e+06 6.891347831702e+06 6.718573403357e+06 6.561894308859e+06 6.861883704010e+06 6.685846193200e+06 6.563626338685e+06 6.896046786286e+06 6.721908465010e+06 6.914425910713e+06 6.578367422938e+06 6.744477128364e+06 6.928309932802e+06 6.593326480793e+06 6.762117846559e+06 6.939421429406e+06 6.934242873505e+06 6.610164104262e+06 6.782086372441e+06 6.910004180986e+06 6.639412551707e+06 6.813765150134e+06 6.603765736944e+06 6.774209908449e+06 6.585421876871e+06 6.744478078625e+06 6.580081742025e+06 6.722753324460e+06 6.870855164282e+06 6.590803036607e+06 6.725280218357e+06 6.830098595504e+06 6.960171440122e+06 7.101770848254e+06 6.618049406971e+06 6.671517933053e+06 6.807202503046e+06 6.984466413493e+06 6.756206032133e+06 6.924092245239e+06 6.870928255046e+06 7.029201881148e+06 7.095244651019e+06 7.117596822082e+06 7.315643764081e+06 7.513690706103e+06 7.711737648146e+06 7.909784590208e+06 7.909785957053e+06 7.909787323885e+06 7.909788690703e+06 7.909790057511e+06 7.909791424307e+06 7.909792791094e+06 7.909794157873e+06 7.909795524647e+06 7.909796891419e+06 7.909798258191e+06 7.909799624966e+06 7.909800991749e+06 7.909802358538e+06 7.049983777357e+06 7.781652079988e+06 7.755020205108e+06 7.080585466516e+06 7.754311085202e+06 7.765718264239e+06 7.622174618448e+06 7.212229152616e+06 7.587812528591e+06 7.645822803668e+06 7.756174433566e+06 7.618521675703e+06 7.744000220133e+06 7.741547778860e+06 7.750864221544e+06 7.754859341879e+06 7.737177818391e+06 7.763037681888e+06 7.744438985370e+06 7.757762026777e+06 7.748379726309e+06 7.398526644108e+06 7.502786724321e+06 7.156761266069e+06 7.111744048602e+06 7.315180938122e+06 7.089825968761e+06 7.077367048384e+06 7.072685799656e+06 7.076995259918e+06 7.080062830057e+06 7.077471779747e+06 7.075069985712e+06 7.074891292015e+06 7.080517800944e+06 7.090251210486e+06 7.290765396089e+06 7.552833059710e+06 7.417926546986e+06 7.590064905186e+06 7.451665536321e+06 7.270421633373e+06 7.240967645142e+06 7.221715306160e+06 7.413821776230e+06 7.373102418457e+06 7.557083583296e+06 7.220212565986e+06 7.345522273726e+06 7.459379633717e+06 7.577456222819e+06 7.248273378618e+06 7.354579819864e+06 7.443169370318e+06 7.236107124475e+06 7.231531478243e+06 7.224215867001e+06 7.227323110245e+06 7.248900798931e+06 7.429709044461e+06 7.604104839442e+06 7.371920070306e+06 7.505585446871e+06 7.627317689213e+06 7.359219581690e+06 7.455750269761e+06 7.539864360900e+06 7.608713985929e+06 7.630248810108e+06 7.372724321768e+06 7.498289687435e+06 7.519130481428e+06 7.643603449280e+06 7.399331751695e+06 7.566646103418e+06 7.608950802600e+06 7.489229260956e+06 7.376319846232e+06 7.390327322566e+06 7.492528685507e+06 7.610619225451e+06 7.478187605137e+06 8.102444145133e+06 8.295103700072e+06 8.487763255018e+06 8.680422809973e+06 8.873082364934e+06 9.065741919899e+06 9.258401474869e+06 9.451061029841e+06 9.643720584815e+06 9.836380139790e+06 9.836372301026e+06 9.836364462261e+06 9.836356623495e+06 9.836348784730e+06 9.836340945964e+06 9.836333107199e+06 9.836325268435e+06 9.836317429672e+06 9.836309590911e+06 9.836301752153e+06 9.836293913398e+06 9.710925041459e+06 8.036021210629e+06 9.683309791689e+06 8.065912551304e+06 9.557741537156e+06 9.680718145630e+06 8.192430474278e+06 9.692077540430e+06 9.519318945723e+06 9.572610245883e+06 9.682838129594e+06 9.541430516434e+06 9.675608154899e+06 9.674196826925e+06 9.672700503301e+06 9.664869133752e+06 9.652390253049e+06 9.641120237337e+06 9.650789448789e+06 9.338516827989e+06 9.427160379716e+06 9.142888599439e+06 8.944197562429e+06 8.748648443468e+06 8.549980339674e+06 8.337539148258e+06 8.118425815249e+06 8.155817424228e+06 8.089565324254e+06 8.061291393770e+06 8.063217105965e+06 8.071045650610e+06 8.075159075139e+06 8.074046119731e+06 8.072580772933e+06 8.074852891045e+06 8.078976185557e+06 8.418023686805e+06 8.307365827371e+06 8.193148899006e+06 8.202043487277e+06 8.627308990714e+06 8.816719327011e+06 9.017965827387e+06 8.225014532421e+06 9.232493616995e+06 9.368110907756e+06 9.169021542859e+06 8.971490910705e+06 8.777746898769e+06 8.584533644549e+06 8.386595438095e+06 8.268968928845e+06 9.515364554547e+06 9.358571187617e+06 8.242838170858e+06 8.243005336514e+06 8.233759745722e+06 8.233397449286e+06 8.245021516515e+06 9.492605605066e+06 9.280929886240e+06 9.070884338552e+06 8.874040566656e+06 8.684379541142e+06 8.491460565141e+06 8.423405305229e+06 8.391246500956e+06 8.601986539599e+06 8.543124137908e+06 8.778281018647e+06 8.693105297044e+06 8.383481307936e+06 8.519910141992e+06 8.630439329274e+06 8.963463142073e+06 8.854664987294e+06 8.751598521668e+06 8.396038900571e+06 8.526595738275e+06 8.645101872524e+06 9.168250835205e+06 9.036316970705e+06 8.906323659605e+06 9.418180874122e+06 9.453196931384e+06 9.482542652403e+06 9.508569148332e+06 9.240827744524e+06 9.084884674260e+06 9.515379235873e+06 9.508352960596e+06 9.284114117900e+06 9.331402927314e+06 9.383518694767e+06 9.343954359718e+06 8.435533470955e+06 8.780276267673e+06 8.661484646804e+06 8.552953733997e+06 8.929834777842e+06 9.111004373006e+06 9.217207137975e+06 8.786158530278e+06 8.676214499238e+06 8.620413248514e+06 8.908573055707e+06 9.018960559628e+06 8.758321675036e+06 8.844614891431e+06 8.406284225821e+06 8.585092539544e+06 8.711978876895e+06 8.363815243247e+06 8.305224233857e+06 9.324932033858e+06 9.109557546657e+06 8.861402189498e+06 8.700256347984e+06 8.529753427994e+06 8.459421745578e+06 8.665536292235e+06 9.112929885219e+06 8.917130699041e+06 8.750250290146e+06 8.857366447663e+06 8.584017383250e+06 1.003387632406e+07 1.023137250834e+07 1.042886869261e+07 1.062636487689e+07 1.082386106116e+07 1.102135724543e+07 1.121885342970e+07 1.141634961397e+07 1.161384579824e+07 1.181134198251e+07 1.181134198251e+07 1.181134198251e+07 1.181134198251e+07 1.181134198252e+07 1.181134198253e+07 1.181134198254e+07 1.181134198255e+07 1.181134198256e+07 1.181134198258e+07 1.168362719699e+07 9.961416269565e+06 1.166276347100e+07 9.986133122010e+06 1.150798308219e+07 1.152824091254e+07 1.165374116907e+07 1.011450555792e+07 1.166396567418e+07 1.155006912946e+07 1.134040081566e+07 1.141076992803e+07 1.116194928601e+07 1.097779280101e+07 1.079202061711e+07 1.061101916058e+07 1.044029405103e+07 1.026892382603e+07 1.005344359225e+07 1.164311597314e+07 1.150474663158e+07 1.163041175994e+07 1.162820999267e+07 1.162014036190e+07 1.161129404856e+07 1.162327150108e+07 1.000314942647e+07 1.000863428713e+07 1.000742952247e+07 1.000525700831e+07 1.000419950686e+07 1.000499219897e+07 1.000866487868e+07 1.001964837856e+07 1.020249056038e+07 1.034813969823e+07 1.018189629340e+07 1.034491520553e+07 1.017470324478e+07 1.048568662207e+07 1.034374358148e+07 1.017193032622e+07 1.034030547032e+07 1.017255324077e+07 1.017661027389e+07 1.033818950320e+07 1.018289599417e+07 1.034205698730e+07 1.035170013967e+07 1.066136063281e+07 1.085625989486e+07 1.105149333873e+07 1.123730398236e+07 1.132417235705e+07 1.051043867609e+07 1.051397184590e+07 1.050338482250e+07 1.050261305870e+07 1.051353376525e+07 1.018671771534e+07 1.036784423149e+07 1.052924463173e+07 1.016542212606e+07 1.133758660625e+07 1.113857726801e+07 1.093788728986e+07 1.073360676422e+07 1.052163882611e+07 1.030914123657e+07 1.039337740361e+07 1.063919005265e+07 1.056446583105e+07 1.085347640326e+07 1.105725775176e+07 1.125930916063e+07 1.146486902160e+07 1.071572756984e+07 1.067423181010e+07 1.065484653981e+07 1.066669412882e+07 1.094165376221e+07 1.085527344701e+07 1.113539953750e+07 1.103743760131e+07 1.080532939995e+07 1.077944020098e+07 1.095895014884e+07 1.091071706978e+07 1.122059119732e+07 1.111275217985e+07 1.103212104722e+07 1.069093549109e+07 1.086043091311e+07 1.068837173851e+07 1.076957385836e+07 1.098411671791e+07 1.117070209766e+07 1.138708313138e+07 1.141391958143e+07 1.144313687960e+07 1.116547910168e+07 1.145084868428e+07 1.143590729573e+07 1.127663595104e+07 1.114934984677e+07 1.128871555099e+07 1.125457270017e+07 1.115607551928e+07 1.105884862247e+07 1.088823734233e+07 1.102795709351e+07 8.918050013142e+06 8.918050004583e+06 8.918049996034e+06 8.918049987495e+06 8.918049978967e+06 8.918049970450e+06 8.918049961943e+06 8.918049953447e+06 8.918049944961e+06 8.918049936484e+06 8.918049928015e+06 8.918049919552e+06 8.918049911095e+06 8.918049902642e+06 8.918049894192e+06 8.918049885743e+06 8.918049877293e+06 8.918049868843e+06 8.918049860389e+06 8.918049851931e+06 8.918049843468e+06 8.918049834997e+06 8.918049826520e+06 8.918049818034e+06 8.918049809539e+06 8.918049801034e+06 8.918049792519e+06 8.918049783992e+06 8.918049775454e+06 8.918049766904e+06 8.918049758343e+06 8.918049749768e+06 8.716405853641e+06 8.514761957529e+06 8.313118061432e+06 8.111474165351e+06 8.040194482896e+06 8.785140916065e+06 8.067765260779e+06 8.753687841429e+06 8.067777943729e+06 8.057246539042e+06 8.202318930193e+06 8.619708367052e+06 8.238120875574e+06 8.179414233664e+06 8.067788239398e+06 8.208129674472e+06 8.081650914967e+06 8.085795799358e+06 8.082590907821e+06 8.081480272269e+06 8.080189577754e+06 8.079165791645e+06 8.078482413264e+06 8.078074730472e+06 8.077861992234e+06 8.077777198512e+06 8.077767199664e+06 8.077800584507e+06 8.077855020563e+06 8.077913265431e+06 8.077965484850e+06 8.077996514661e+06 8.077995713088e+06 8.077947141898e+06 8.077832104326e+06 8.077635542302e+06 8.077349054512e+06 8.077032782936e+06 8.077939501923e+06 8.091691587102e+06 8.064754335624e+06 8.073368849522e+06 8.430952788767e+06 8.325481421156e+06 8.676980326742e+06 8.723527538284e+06 8.516749767799e+06 8.746838294111e+06 8.760436775894e+06 8.764839652867e+06 8.761077351435e+06 8.755930890459e+06 8.753007843053e+06 8.751459659118e+06 8.750625915371e+06 8.750179923485e+06 8.749959604331e+06 8.749880284847e+06 8.749886491659e+06 8.749933474708e+06 8.749997287123e+06 8.750065909864e+06 8.750128012536e+06 8.750171151013e+06 8.750182019932e+06 8.750146862164e+06 8.750059440306e+06 8.749950132351e+06 8.749965142588e+06 8.750568610421e+06 8.752856817945e+06 8.755083630560e+06 8.751727235512e+06 8.743105197346e+06 8.538662685544e+06 8.271788894067e+06 8.410040302163e+06 8.239090229097e+06 8.379089846506e+06 8.563947939866e+06 8.596282253644e+06 8.617747239164e+06 8.420476131311e+06 8.467134959228e+06 8.612926491705e+06 8.503738568240e+06 8.276454998959e+06 8.386909830451e+06 8.253315570453e+06 8.596096907598e+06 8.433120604955e+06 8.254374164053e+06 8.423930706785e+06 8.251401793999e+06 8.249019970228e+06 8.247458539481e+06 8.588973893816e+06 8.419249533222e+06 8.585484287087e+06 8.416639511165e+06 8.583625866196e+06 8.415135957733e+06 8.582610258189e+06 8.246528997120e+06 8.414306849644e+06 8.582077914041e+06 8.581821175364e+06 8.581759486365e+06 8.581796596233e+06 8.581878676667e+06 8.581983594091e+06 8.582089333630e+06 8.582172600850e+06 8.582213566044e+06 8.582188325332e+06 8.582077136071e+06 8.581883708403e+06 8.581688801637e+06 8.581801950930e+06 8.583404333292e+06 8.593071904326e+06 8.598041260037e+06 8.579263211543e+06 8.394535657803e+06 8.217089188912e+06 8.450944617972e+06 8.311517097380e+06 8.188044260201e+06 8.460125001132e+06 8.364526783750e+06 8.256183544437e+06 8.237275339901e+06 8.345575960962e+06 8.243229479330e+06 8.246021068535e+06 8.413903521636e+06 8.245785530888e+06 8.413740310703e+06 8.245714474192e+06 8.245725988880e+06 8.413731452602e+06 8.413781158419e+06 8.413873526523e+06 8.245810381955e+06 8.245900925995e+06 8.413991718542e+06 8.245994120401e+06 8.246066629022e+06 8.414089644166e+06 8.414153568478e+06 8.414159805278e+06 8.246082941304e+06 8.246052676121e+06 8.414070974294e+06 8.413884802400e+06 8.245919494351e+06 8.245688138599e+06 8.245325161337e+06 8.413596374776e+06 8.413235138297e+06 8.412728139303e+06 8.244790274424e+06 8.410715462532e+06 1.082652766253e+07 1.082652766667e+07 1.082652767081e+07 1.082652767495e+07 1.082652767909e+07 1.082652768324e+07 1.082652768740e+07 1.082652769155e+07 1.082652769571e+07 1.082652769988e+07 1.082652770405e+07 1.082652770822e+07 1.082652771239e+07 1.082652771656e+07 1.082652772074e+07 1.082652772491e+07 1.082652772909e+07 1.082652773327e+07 1.082652773744e+07 1.082652774162e+07 1.082652774579e+07 1.082652774996e+07 1.082652775413e+07 1.082652775829e+07 1.082652776245e+07 1.082652776661e+07 1.082652777076e+07 1.082652777490e+07 1.082652777905e+07 1.082652778318e+07 1.082652778731e+07 1.082652779143e+07 1.082652779555e+07 1.082652779966e+07 1.063567999464e+07 1.044483218962e+07 1.025398438461e+07 1.006313657961e+07 9.872288774609e+06 9.681440969622e+06 9.490593164644e+06 9.299745359675e+06 9.108897554716e+06 9.042308353808e+06 1.070130845507e+07 9.069485732438e+06 1.067149718783e+07 9.194006120599e+06 9.072163918041e+06 1.054616040911e+07 9.060948157035e+06 9.231498607475e+06 9.178765841876e+06 9.070908277255e+06 9.209701635056e+06 9.080512449564e+06 9.085299239332e+06 9.085956654636e+06 9.084785945601e+06 9.083859135879e+06 9.083956205249e+06 9.084714463265e+06 9.085430498115e+06 9.085597241078e+06 9.085149273380e+06 9.084417913498e+06 9.083870218019e+06 9.083803997708e+06 9.084135001859e+06 9.084430287322e+06 9.084327834321e+06 9.083924928763e+06 9.083576342851e+06 9.083391317303e+06 9.082933625636e+06 9.081261979750e+06 9.078508118633e+06 9.078914304371e+06 9.086631131205e+06 9.099262006636e+06 9.110809351117e+06 9.101581245268e+06 9.409778428756e+06 9.321556953005e+06 9.603248845978e+06 9.800834889502e+06 9.995020297756e+06 1.019132121317e+07 1.040145032140e+07 1.061913513922e+07 1.057980928499e+07 1.064362167699e+07 1.067252314744e+07 1.067283063389e+07 1.066479809020e+07 1.065695212840e+07 1.065519663305e+07 1.065776043264e+07 1.066022621558e+07 1.066152724666e+07 1.066266252450e+07 1.066426995134e+07 1.066516530983e+07 1.066354112497e+07 1.066088611575e+07 1.066020211518e+07 1.066090850610e+07 1.066161691382e+07 1.066198784789e+07 1.066095360181e+07 1.065958364224e+07 1.066024139947e+07 1.066187173978e+07 1.066273887530e+07 1.066337565344e+07 1.066472638764e+07 1.066630348784e+07 1.066618280958e+07 1.066289470962e+07 1.065848420755e+07 1.031970804498e+07 1.042197765717e+07 1.053472293994e+07 1.053130246674e+07 1.011480417551e+07 9.927956252367e+06 9.725217659337e+06 1.051574701637e+07 9.511530197918e+06 9.381747262977e+06 9.578801226776e+06 9.774284939136e+06 9.966049990082e+06 1.015739737886e+07 1.035359009204e+07 1.046981582811e+07 9.237752962889e+06 9.387775184027e+06 1.049037701901e+07 1.047776411051e+07 1.048428675271e+07 1.049197351911e+07 1.049541716702e+07 1.049697343719e+07 1.050042709750e+07 1.050562128386e+07 1.050642444319e+07 1.049764524905e+07 1.049231603937e+07 1.049486088750e+07 1.049612775888e+07 1.049797534981e+07 1.049883580219e+07 1.049295311784e+07 1.049108144474e+07 1.049662260243e+07 1.049930136807e+07 1.049959695451e+07 1.050105590802e+07 1.050568361966e+07 1.050935167385e+07 1.050644663459e+07 1.049368385753e+07 9.258255148354e+06 9.467573691889e+06 9.675263445091e+06 9.869956370449e+06 1.005770398655e+07 1.024896366781e+07 1.031609495043e+07 1.034855988112e+07 1.013859856417e+07 1.019663184275e+07 9.963729776942e+06 1.004704718773e+07 1.035879818258e+07 1.022008227851e+07 1.010870951308e+07 9.780363343964e+06 9.886245949174e+06 9.986515368023e+06 1.035385826400e+07 1.021511473347e+07 1.009228742669e+07 1.033992940615e+07 1.033389791477e+07 1.033792513267e+07 1.033779769207e+07 1.033035837262e+07 1.030785519853e+07 1.034060778263e+07 1.033959698030e+07 1.033051674694e+07 1.033161635906e+07 1.032900467500e+07 1.031307572475e+07 1.035228490689e+07 1.035733436909e+07 1.034274028652e+07 1.033173781355e+07 1.032987710660e+07 1.033021572677e+07 1.032140202709e+07 1.029932890090e+07 9.577878990956e+06 9.706046682793e+06 9.830915110799e+06 9.951729795093e+06 1.007038255343e+07 1.019465111426e+07 1.027942491312e+07 9.331040647742e+06 9.295206108823e+06 9.265036771897e+06 9.238711833535e+06 9.504064377208e+06 9.653462856802e+06 9.798302292479e+06 9.929455903211e+06 1.003746401831e+07 9.231813936964e+06 9.241232342568e+06 9.247079211704e+06 9.248181507187e+06 9.248293427596e+06 9.248987669773e+06 9.250345984416e+06 9.251355708321e+06 9.250982139072e+06 9.249728414674e+06 9.249149557329e+06 9.250056790752e+06 9.252034710402e+06 9.253897744249e+06 9.254395299274e+06 9.253072366616e+06 9.250705328152e+06 9.249019877027e+06 9.249815078793e+06 9.253542831419e+06 9.256609591670e+06 9.253067726837e+06 9.458231610037e+06 9.409370718278e+06 9.357756056345e+06 9.393032975513e+06 9.619666481356e+06 9.513382372939e+06 9.801149788320e+06 9.914869156848e+06 9.700094439482e+06 9.841100167810e+06 9.413004035914e+06 9.413404903016e+06 9.412029890381e+06 9.412379445880e+06 9.414997967238e+06 9.418677952487e+06 9.419786887583e+06 9.416788176191e+06 9.413767416446e+06 9.414167210344e+06 9.417785958667e+06 9.422623367430e+06 9.425601532857e+06 9.424561066135e+06 9.419850738517e+06 9.414311713296e+06 9.411967755566e+06 9.416383566829e+06 9.428685868492e+06 9.434158521862e+06 9.424778356328e+06 9.621825483552e+06 9.886704687693e+06 1.004610108426e+07 1.020949732706e+07 1.034799979191e+07 1.038831067326e+07 1.040484138209e+07 1.026303751642e+07 1.029111664063e+07 1.009267970689e+07 1.024097271755e+07 1.016053184806e+07 9.992425870628e+06 9.803740549379e+06 9.615229877420e+06 9.628416620643e+06 9.584669967617e+06 9.570505756100e+06 9.571998500712e+06 9.582413096462e+06 9.594600599997e+06 9.601258744327e+06 9.599029185932e+06 9.589730202706e+06 9.579989208244e+06 9.575404440261e+06 9.577971454054e+06 9.588955749921e+06 9.592508195471e+06 9.583547538512e+06 9.576049093616e+06 9.573096754800e+06 9.575081007216e+06 9.582539219400e+06 1.008559151176e+07 9.929051618001e+06 9.780627135997e+06 1.017547083162e+07 1.001879750551e+07 9.897097205646e+06 9.812948563524e+06 9.745606794553e+06 9.719103703500e+06 9.718543535704e+06 9.733551429659e+06 9.759961821078e+06 9.780435297316e+06 9.785341992948e+06 9.772217042744e+06 9.749104960411e+06 9.735401713298e+06 9.732152297645e+06 9.741526677825e+06 9.785945634346e+06 9.758861978120e+06 9.740476263723e+06 9.731306439268e+06 9.730337845620e+06 9.736853660536e+06 9.946585462343e+06 9.881653096954e+06 9.847644118133e+06 9.847060530342e+06 9.867614711008e+06 1.008215116819e+07 9.988762719612e+06 9.949137768879e+06 1.008447330640e+07 1.014754939680e+07 9.942822547704e+06 9.985100422596e+06 1.017248802123e+07 1.001994990360e+07 1.016742108982e+07 1.004587053175e+07 9.899408153384e+06 9.968914542685e+06 1.015590473641e+07 9.973616719520e+06 1.016474776783e+07 9.988041086036e+06 9.925133092496e+06 1.019862242949e+07 1.010013990615e+07 1.024155949374e+07 9.894785207065e+06 1.004993912467e+07 1.020129920067e+07 9.882770219507e+06 1.002899929233e+07 1.015247230126e+07 1.017035538516e+07 1.002601997555e+07 9.881030375117e+06 1.017385976639e+07 1.002045448285e+07 9.884118723543e+06 1.016665785061e+07 9.992208695337e+06 9.944825104866e+06 9.906849711441e+06 9.886742761016e+06 9.880871551575e+06 9.883677487132e+06 1.015222213379e+07 1.007422705619e+07 1.021861032125e+07 1.003720868483e+07 1.018714668445e+07 1.002451988625e+07 1.014510593101e+07 1.016941430685e+07 1.002869468425e+07 1.018039816659e+07 1.003332846596e+07 9.891204685054e+06 1.018276407904e+07 1.003232042234e+07 1.017436879212e+07 1.015038556900e+07 9.962992902362e+06 1.000812249138e+07 9.756344223687e+06 9.902701547251e+06 9.597739620924e+06 9.824257472596e+06 1.181134198264e+07 1.181134198267e+07 1.181134198269e+07 1.181134198273e+07 1.181134198276e+07 1.181134198280e+07 1.181134198284e+07 1.181134198288e+07 1.181134198293e+07 1.181134198298e+07 1.181134198303e+07 1.181134198309e+07 1.181134198315e+07 1.181134198320e+07 1.181134198327e+07 1.181134198333e+07 1.181134198339e+07 1.181134198345e+07 1.181134198351e+07 1.181134198357e+07 1.181134198363e+07 1.181134198369e+07 1.181134198375e+07 1.181134198380e+07 1.181134198385e+07 1.181134198390e+07 1.181134198394e+07 1.181134198398e+07 1.181134198401e+07 1.181134198404e+07 1.181134198407e+07 1.181134198409e+07 1.181134198410e+07 1.181134198411e+07 1.181134198411e+07 1.161437914721e+07 1.141741631031e+07 1.122045347342e+07 1.102349063654e+07 1.167980330747e+07 1.095480944781e+07 1.098032462120e+07 1.164586730075e+07 1.098481440114e+07 1.096951390027e+07 1.111234252394e+07 1.151563640392e+07 1.114654011204e+07 1.108867276620e+07 1.097866573078e+07 1.111541999720e+07 1.099020987667e+07 1.099311838647e+07 1.099592741297e+07 1.099957623923e+07 1.099622468360e+07 1.099378499725e+07 1.099245601577e+07 1.099179527605e+07 1.099147812169e+07 1.099132001461e+07 1.099123086791e+07 1.099117336194e+07 1.099113318270e+07 1.099110320190e+07 1.099107861140e+07 1.099105664692e+07 1.099103654335e+07 1.099101919858e+07 1.099100763557e+07 1.099100923644e+07 1.099104062830e+07 1.099113645716e+07 1.099136493157e+07 1.099185807668e+07 1.099290950462e+07 1.099524399622e+07 1.100064671732e+07 1.101174397597e+07 1.100947357606e+07 1.133474172893e+07 1.123073832134e+07 1.157525425322e+07 1.161976481623e+07 1.141725001117e+07 1.164130617973e+07 1.165367506590e+07 1.165945407166e+07 1.165921619143e+07 1.165578686634e+07 1.165239731273e+07 1.165019917205e+07 1.164898380123e+07 1.164836286313e+07 1.164805391084e+07 1.164789407019e+07 1.164780256812e+07 1.164774411542e+07 1.164770335528e+07 1.164767222465e+07 1.164764593777e+07 1.164762206492e+07 1.164759989752e+07 1.164757999993e+07 1.164756477161e+07 1.164756081633e+07 1.164758344660e+07 1.164766185155e+07 1.164783875595e+07 1.164814927138e+07 1.164854119645e+07 1.164863257221e+07 1.164705259726e+07 1.164049629695e+07 1.163191951578e+07 1.142428883418e+07 1.117850999705e+07 1.131146543344e+07 1.114274738180e+07 1.128092229908e+07 1.146117373988e+07 1.148967657769e+07 1.150836143915e+07 1.131724091723e+07 1.135532653726e+07 1.117280064606e+07 1.151261974447e+07 1.137887877498e+07 1.126422593151e+07 1.114621303864e+07 1.150490881105e+07 1.136481004917e+07 1.126753669759e+07 1.118346586461e+07 1.149582355140e+07 1.149017380807e+07 1.148708365571e+07 1.148549571563e+07 1.148471059403e+07 1.148432274702e+07 1.148411719199e+07 1.148399419217e+07 1.148391226466e+07 1.148385313152e+07 1.148380645328e+07 1.148376600935e+07 1.148372903740e+07 1.148369554291e+07 1.148366832731e+07 1.148365526194e+07 1.148367479193e+07 1.148376436001e+07 1.148398803108e+07 1.148443290368e+07 1.148517455580e+07 1.148613579452e+07 1.148656555702e+07 1.148281523660e+07 1.145729679602e+07 1.122797793186e+07 1.133524306948e+07 1.117831876967e+07 1.132884681015e+07 1.116465922575e+07 1.132477016415e+07 1.115960309927e+07 1.132237907907e+07 1.115736471923e+07 1.115628897429e+07 1.132099569820e+07 1.132023548809e+07 1.115574778252e+07 1.131983989281e+07 1.115549626607e+07 1.131965825169e+07 1.115539311381e+07 1.131959220498e+07 1.115536399244e+07 1.131958401033e+07 1.115537016352e+07 1.131960299024e+07 1.115539257280e+07 1.131963435462e+07 1.115542247281e+07 1.131967165142e+07 1.115545633380e+07 1.131971291965e+07 1.115549395643e+07 1.131975977874e+07 1.115553848804e+07 1.131981767470e+07 1.115559629338e+07 1.131989543347e+07 1.115567627981e+07 1.132000648934e+07 1.115579425523e+07 1.132018089971e+07 1.115599221495e+07 1.132049794810e+07 1.115637835704e+07 1.132114235559e+07 1.132248585065e+07 1.115718706457e+07 1.115886393337e+07 1.132520097441e+07 1.116222511808e+07 1.133058816234e+07 1.116889608106e+07 1.134140628831e+07 5.807464753501e+06 5.896776069233e+06 5.854575599388e+06 5.850380219172e+06 5.761041116741e+06 5.854603385990e+06 5.671729800909e+06 5.675952967805e+06 5.650148675910e+06 5.565060526837e+06 5.274593555142e+06 5.230781048656e+06 5.185583881227e+06 4.751805792043e+06 4.719685061780e+06 4.661407757342e+06 4.390624907661e+06 4.356336512074e+06 4.301994817753e+06 4.033673806642e+06 4.029629319477e+06 3.974993407081e+06 3.930374211791e+06 3.926329719221e+06 3.928561302693e+06 3.879897591059e+06 4.023825776731e+06 3.942945247719e+06 3.987742685702e+06 3.928556506520e+06 3.892473417644e+06 3.979033133765e+06 4.068344451651e+06 4.068349244701e+06 4.122985142297e+06 4.212683495636e+06 4.178008071910e+06 4.246971894113e+06 4.166249805314e+06 4.255561125111e+06 4.076933686887e+06 4.121731126291e+06 4.215506081675e+06 4.162398169284e+06 4.414257489323e+06 4.313411432215e+06 4.357019180479e+06 4.272744389589e+06 4.353466477847e+06 4.442777796263e+06 4.425594534060e+06 4.479936226758e+06 4.572096439573e+06 4.537126814438e+06 4.604217170493e+06 4.540683147714e+06 4.629994465190e+06 4.468555092119e+06 4.512162839833e+06 4.602331180324e+06 4.548033577353e+06 4.782941402036e+06 4.700236530517e+06 4.720906789000e+06 4.664365793443e+06 4.727899815830e+06 4.817211132719e+06 4.782839805131e+06 4.841117109094e+06 4.925431438689e+06 4.894397425972e+06 4.961462438706e+06 5.014742755311e+06 5.096272564894e+06 5.060241565128e+06 5.140085071584e+06 5.093586137703e+06 5.182897453950e+06 5.047240181993e+06 5.004427799345e+06 4.915116482841e+06 4.860176493783e+06 4.880846751915e+06 4.958081681486e+06 4.880846589913e+06 5.047240019700e+06 5.065308882622e+06 5.154467382945e+06 5.352917310781e+06 5.243625720964e+06 5.281827835464e+06 5.225556858328e+06 5.272055792090e+06 5.361367108152e+06 5.318707703976e+06 5.363904871266e+06 5.475749210881e+06 5.431635062248e+06 5.497330336021e+06 5.450525446133e+06 5.539836762057e+06 5.403873534339e+06 5.442075648683e+06 5.530789775513e+06 5.479833551996e+06 5.704910948505e+06 5.619948113319e+06 5.653510513952e+06 5.582190210103e+06 5.628995099918e+06 5.718306415734e+06 5.760506885672e+06 5.794069286230e+06 5.881047971096e+06 5.825452033964e+06 6.240845876300e+06 6.149467433765e+06 6.184014736110e+06 6.592247219598e+06 6.508658779370e+06 6.537974074787e+06 6.919564761021e+06 6.847122101306e+06 6.847121588180e+06 7.357093649422e+06 7.236210960395e+06 7.277643955092e+06 7.733388120137e+06 7.649784281877e+06 7.671416366852e+06 8.316319671775e+06 8.206763005269e+06 8.227982481756e+06 8.714522554328e+06 8.615188502429e+06 8.649314391572e+06 9.104290867238e+06 9.004945348733e+06 9.043543080935e+06 9.485154275289e+06 9.394753216421e+06 9.428917886856e+06 9.836289994021e+06 9.759797933167e+06 9.759801852544e+06 9.926065262573e+06 9.926061343198e+06 9.944868752823e+06 1.003464010200e+07 1.040761586848e+07 1.032193075599e+07 1.035460893853e+07 1.076302968862e+07 1.067252896035e+07 1.070151988884e+07 1.112754456015e+07 1.103546631765e+07 1.106987104351e+07 1.148011199532e+07 1.139632086205e+07 1.142419194892e+07 1.181134198261e+07 1.172156671407e+07 1.172156671406e+07 1.181134198259e+07 1.173705272680e+07 1.173705272679e+07 1.164727745826e+07 1.156988726385e+07 1.158537327660e+07 1.154201617699e+07 1.162308528165e+07 1.153331001311e+07 1.171286055020e+07 1.181134198263e+07 1.171286055021e+07 1.169329811793e+07 1.159481668550e+07 1.137607899094e+07 1.149633525308e+07 1.145499799108e+07 1.151589768536e+07 1.143482858069e+07 1.134505331215e+07 1.136246563991e+07 1.130654559351e+07 1.121731982869e+07 1.125117505083e+07 1.118291510283e+07 1.124657187973e+07 1.115679661119e+07 1.131893482052e+07 1.127759755851e+07 1.118349675007e+07 1.124064092049e+07 1.100190757222e+07 1.108501531765e+07 1.106343236662e+07 1.112197195567e+07 1.105831517877e+07 1.096853991023e+07 1.100336456575e+07 1.094569104911e+07 1.085280495716e+07 1.088490670906e+07 1.082381402867e+07 1.087005847780e+07 1.078028320926e+07 1.092500909083e+07 1.090342613980e+07 1.082652766047e+07 1.090342614187e+07 1.073110377864e+07 1.072283140087e+07 1.062740751698e+07 1.073110377658e+07 1.068485932744e+07 1.059508405889e+07 1.064426349158e+07 1.058275369180e+07 1.049739113703e+07 1.052565660580e+07 1.046471295449e+07 1.049966017707e+07 1.040988490852e+07 1.054025601293e+07 1.053198363516e+07 1.042314122625e+07 1.051029273031e+07 1.022265279031e+07 1.032771734442e+07 1.029638576729e+07 1.034940824927e+07 1.031446102669e+07 1.022468575815e+07 1.028516241739e+07 1.023215548744e+07 1.012441537055e+07 1.016118370914e+07 1.010561188030e+07 1.012926187632e+07 1.003948660777e+07 1.015856048562e+07 1.012722890848e+07 1.002907845077e+07 1.009317075546e+07 9.642344961215e+06 9.741137982977e+06 9.702041867741e+06 9.183619577679e+06 9.279043459523e+06 9.204321667254e+06 8.918050017425e+06 8.993767877074e+06 8.993767872791e+06 8.501289908377e+06 8.602094567181e+06 8.615636045315e+06 8.089689006014e+06 8.174866813411e+06 8.152943068179e+06 7.443749091578e+06 7.533118024152e+06 7.463158770769e+06 7.066963536119e+06 7.156332468727e+06 7.105683040386e+06 6.700043488186e+06 6.789412420841e+06 6.748207309842e+06 6.342988947724e+06 6.432357880444e+06 6.390731579071e+06 6.106942827328e+06 6.185178809862e+06 6.169496856435e+06 6.211993713569e+06 6.274547742638e+06 6.360456036621e+06 6.333641132951e+06 6.449824969353e+06 6.541241182713e+06 6.510965640297e+06 6.569469444490e+06 6.630610115407e+06 6.721997724096e+06 6.693769462346e+06 6.811366656758e+06 6.899491343572e+06 6.873281757848e+06 6.926945175138e+06 6.988860276209e+06 7.073627655426e+06 7.046173823878e+06 7.162996588041e+06 7.246734332872e+06 7.214678947927e+06 7.284420905594e+06 7.336103265469e+06 7.424435200096e+06 7.386748627388e+06 7.513804132678e+06 7.623358131874e+06 7.584634561217e+06 7.641896635915e+06 7.712727064442e+06 7.820631707989e+06 7.802093203961e+06 7.910000640544e+06 7.820634501037e+06 7.988884347184e+06 7.988881554143e+06 8.010808092423e+06 7.909903579463e+06 8.010708238293e+06 8.006127842836e+06 8.107032355786e+06 8.207837014606e+06 8.212417410071e+06 8.275671472231e+06 8.372087428826e+06 8.334536832173e+06 8.414026727701e+06 8.472892087638e+06 8.595905856624e+06 8.553966557757e+06 8.696710515427e+06 8.817245358629e+06 8.797515169944e+06 8.817245362915e+06 8.772915086307e+06 8.873719745104e+06 8.851217184307e+06 8.916029980797e+06 8.894202264987e+06 8.938532541593e+06 9.033956423442e+06 9.013473903561e+06 9.089191758922e+06 9.170198196441e+06 9.150492169957e+06 9.265622078286e+06 9.354761988926e+06 9.320638518116e+06 9.395169430938e+06 9.450185870767e+06 9.546921079377e+06 9.506513637368e+06 9.586017194617e+06 9.567115576266e+06 9.662539458102e+06 9.701025646315e+06 9.719927264665e+06 9.776864958289e+06 9.815351146500e+06 9.836561864812e+06 9.933654568939e+06 9.897927593630e+06 9.967712721955e+06 9.944062725936e+06 9.854287457384e+06 9.797349763762e+06 9.739961957200e+06 9.663473815721e+06 9.581478392738e+06 9.601314368707e+06 9.547313722305e+06 9.470791458816e+06 9.375367576976e+06 9.354665487403e+06 9.298429098969e+06 9.200614984694e+06 9.240702713714e+06 9.162017252495e+06 9.087295460222e+06 9.012354098257e+06 8.969369017579e+06 8.908621231273e+06 8.810846671791e+06 8.846423002950e+06 8.776720782654e+06 8.754893066843e+06 8.698418684651e+06 8.584072547719e+06 8.518864384960e+06 8.412643789251e+06 8.443759743968e+06 8.391424312773e+06 8.404965790901e+06 8.304161132089e+06 8.198776077812e+06 8.110438887786e+06 8.006127159430e+06 8.014114086896e+06 7.909803041938e+06 7.832411965223e+06 7.832411281825e+06 7.810779880257e+06 7.810879734376e+06 7.721510801820e+06 7.632141869258e+06 7.612732190071e+06 7.550760436779e+06 7.456117494534e+06 7.493169586352e+06 7.414684499857e+06 7.344725246457e+06 7.255356313867e+06 7.216636809609e+06 7.137187115267e+06 7.018588606174e+06 7.038162756989e+06 7.018589119322e+06 6.967939690957e+06 6.878570758327e+06 6.830406936688e+06 6.757963763830e+06 6.681405557098e+06 6.698120721737e+06 6.652090261705e+06 6.610885150674e+06 6.521516217989e+06 6.473773586667e+06 6.419500441841e+06 6.330004213863e+06 6.364889406599e+06 6.295456911560e+06 6.253830610139e+06 6.164461677375e+06 6.117140236372e+06 6.075303339743e+06 6.060309096158e+06 5.970206308756e+06 6.002533506200e+06 5.938823561084e+06 5.985934406925e+06 6.033255847965e+06 6.017573894498e+06 5.943914701733e+06 6.017601681149e+06 5.605592655002e+06 5.584415930994e+06 5.561013486079e+06 5.495181104103e+06 5.518583549036e+06 5.473927891067e+06 5.531195431417e+06 5.520404868868e+06 5.486539773439e+06 5.341306287611e+06 5.319249213215e+06 5.296650629554e+06 5.091819269935e+06 5.100853701344e+06 5.145432951571e+06 5.162834476396e+06 5.140928223077e+06 5.118178818236e+06 4.988102596998e+06 4.970087097024e+06 4.943446938693e+06 4.916806780388e+06 4.898791280343e+06 4.883274273919e+06 4.856634115550e+06 4.722667139988e+06 4.706606774743e+06 4.677468122645e+06 4.543501146023e+06 4.526016333254e+06 4.497421039649e+06 4.363454061088e+06 4.346309862884e+06 4.319139016217e+06 4.185172033277e+06 4.167834320309e+06 4.140322856993e+06 4.006355851403e+06 4.004333603126e+06 3.977015662479e+06 3.954706063576e+06 3.952683813560e+06 3.953799612768e+06 3.929467757350e+06 3.960986792614e+06 3.953792421768e+06 3.935750877328e+06 4.001427057180e+06 3.983385512063e+06 4.195172560053e+06 4.148285082092e+06 4.168618603923e+06 4.392453615236e+06 4.342030586516e+06 4.363834460758e+06 4.584395811648e+06 4.539311641330e+06 4.557247010093e+06 4.772606272880e+06 4.731253837092e+06 4.741588966297e+06 4.821558947888e+06 4.831894076999e+06 4.870511622851e+06 4.811223818775e+06 4.887646488281e+06 4.866163807808e+06 4.838693813256e+06 4.789741138179e+06 4.772555474302e+06 4.800025468914e+06 4.755369810435e+06 4.745085479776e+06 4.696132804584e+06 4.678947140551e+06 4.647180129323e+06 4.713318468609e+06 4.682301161996e+06 4.633348486849e+06 4.651283855443e+06 4.615413118217e+06 4.598227453987e+06 4.585338806496e+06 4.617105817820e+06 4.572450159022e+06 4.553571795323e+06 4.504619119817e+06 4.491730472055e+06 4.455666444210e+06 4.517507767559e+06 4.490358966024e+06 4.441406290659e+06 4.463210164595e+06 4.419602416600e+06 4.406713768491e+06 4.398122137125e+06 4.434186165121e+06 4.389530505778e+06 4.362058109450e+06 4.313105433499e+06 4.304513801581e+06 4.264152757434e+06 4.321697065328e+06 4.293077911028e+06 4.244125235528e+06 4.264458756920e+06 4.223791713824e+06 4.215200081276e+06 4.210905465342e+06 4.251266509554e+06 4.206610849174e+06 4.170544421924e+06 4.121591745748e+06 4.117297128559e+06 4.072639069780e+06 4.125886362403e+06 4.099332406802e+06 4.050379731787e+06 4.072778451338e+06 4.027981011814e+06 4.023686394183e+06 4.023688792063e+06 4.068346849191e+06 4.023691187745e+06 3.979030736140e+06 3.953794820502e+06 3.953797217908e+06 3.928558904877e+06 3.979035529199e+06 4.023693581362e+06 4.051011526554e+06 4.095667192416e+06 4.078329477285e+06 4.113004908660e+06 4.113002510322e+06 4.161955188433e+06 4.202316233118e+06 4.229827694871e+06 4.274483355805e+06 4.257339156960e+06 4.291627554611e+06 4.295922169614e+06 4.344874846244e+06 4.380938874511e+06 4.408109720835e+06 4.452765380344e+06 4.435280567340e+06 4.470250193400e+06 4.478841824300e+06 4.527794500119e+06 4.559561511593e+06 4.588156805015e+06 4.632812463884e+06 4.616752098523e+06 4.648872829283e+06 4.661761476525e+06 4.710714151892e+06 4.738184146591e+06 4.767322798577e+06 4.811978457095e+06 4.796461450604e+06 4.827495463606e+06 4.844681127336e+06 4.893633802428e+06 4.938289460745e+06 4.959772141112e+06 4.982945119021e+06 5.027600777258e+06 5.006118096981e+06 5.032758255260e+06 5.073523160044e+06 5.055507660120e+06 5.095429413417e+06 5.072179946455e+06 5.116835604624e+06 5.049006968540e+06 5.070413159827e+06 5.025833990670e+06 5.002661012846e+06 4.981254821482e+06 4.936599163258e+06 4.909129168747e+06 4.919464297775e+06 4.958081762568e+06 4.919464216717e+06 5.002660931717e+06 5.002660850608e+06 5.047240100838e+06 5.091819351113e+06 5.114992328956e+06 5.159647987061e+06 5.138241795840e+06 5.161491262763e+06 5.206146920874e+06 5.184740729720e+06 5.207490134527e+06 5.251994971474e+06 5.230088718197e+06 5.274052045915e+06 5.250726089957e+06 5.295381748019e+06 5.227476623032e+06 5.248806325194e+06 5.204227156139e+06 5.180977689278e+06 5.190012120616e+06 5.199046551965e+06 5.234591289642e+06 5.333816253577e+06 5.279170458649e+06 5.298271515882e+06 5.270136027357e+06 5.293385494229e+06 5.338041152247e+06 5.316711450131e+06 5.340037406061e+06 5.384693064082e+06 5.363363362016e+06 5.385961945647e+06 5.441884115444e+06 5.419827041088e+06 5.452674678037e+06 5.429272233081e+06 5.405946277151e+06 5.427199490225e+06 5.382620321244e+06 5.359294365361e+06 5.378395422552e+06 5.397496479739e+06 5.422974591512e+06 5.511910823882e+06 5.467553760458e+06 5.486432712104e+06 5.448452703301e+06 5.471778659190e+06 5.516434317143e+06 5.537611041182e+06 5.556489992803e+06 5.575368944422e+06 5.601069161712e+06 5.732708917084e+06 5.749490117372e+06 5.777288085951e+06 5.909935766086e+06 5.925627139930e+06 5.954514934920e+06 6.088724666262e+06 6.104888264965e+06 6.133303835069e+06 6.268151393928e+06 6.285425045084e+06 6.312730562711e+06 6.446637014252e+06 6.464079610608e+06 6.491216183018e+06 6.622168740650e+06 6.636826388350e+06 6.666747909401e+06 6.794185350258e+06 6.802542932569e+06 6.838764518996e+06 7.176911962436e+06 7.186699037832e+06 7.226423885002e+06 7.385889074639e+06 7.406605571979e+06 7.435400997195e+06 7.581746313424e+06 7.600272359329e+06 7.631258235974e+06 7.772084000197e+06 7.782900042681e+06 7.821595922740e+06 8.154607482799e+06 8.158600946528e+06 8.202769541540e+06 8.353871992273e+06 8.364481730513e+06 8.402034051011e+06 8.551468466339e+06 8.567026443695e+06 8.599630525074e+06 8.745621668491e+06 8.762684613060e+06 8.793783727223e+06 8.938995124426e+06 8.956783290003e+06 8.987157183156e+06 9.133154059867e+06 9.152452925966e+06 9.181316118594e+06 9.326547293186e+06 9.346591157695e+06 9.374709351912e+06 9.516233998797e+06 9.533316334013e+06 9.564396057521e+06 9.834819301942e+06 9.806350455131e+06 9.825818610573e+06 9.749187705039e+06 9.720493801758e+06 9.768655860481e+06 9.701717886460e+06 9.711635874444e+06 9.749879945184e+06 1.007012599115e+07 1.007952773627e+07 1.011501362542e+07 1.025865895242e+07 1.027704312171e+07 1.030354658669e+07 1.043616441149e+07 1.045250350276e+07 1.048105204576e+07 1.068339183670e+07 1.067925564781e+07 1.063154370587e+07 1.061350859169e+07 1.062764132608e+07 1.065839622596e+07 1.079342185864e+07 1.080791732289e+07 1.083830949291e+07 1.086870166294e+07 1.088319712718e+07 1.092964017316e+07 1.089924800313e+07 1.111034219722e+07 1.106430307597e+07 1.108150543890e+07 1.128961798244e+07 1.124500510003e+07 1.126193271110e+07 1.146617645188e+07 1.142428088525e+07 1.143821642868e+07 1.163953445189e+07 1.160083935469e+07 1.160858236106e+07 1.155535718543e+07 1.154557596929e+07 1.150611646922e+07 1.134750690573e+07 1.132683827473e+07 1.129826618952e+07 1.115273435287e+07 1.113425603386e+07 1.110349363666e+07 1.089753378431e+07 1.091929919402e+07 1.094677450053e+07 1.101342754450e+07 1.098595223799e+07 1.103083987226e+07 1.104090285101e+07 1.099601521674e+07 1.097424980704e+07 1.096345833152e+07 1.095266685601e+07 1.091421761531e+07 1.101269904774e+07 1.105425292045e+07 1.104346144494e+07 1.107273123946e+07 1.109014356722e+07 1.110755589498e+07 1.113938428343e+07 1.120168424546e+07 1.116985585701e+07 1.121474349128e+07 1.123351263391e+07 1.118862499964e+07 1.117121267189e+07 1.120197506908e+07 1.124902547331e+07 1.123054715429e+07 1.126969410431e+07 1.128275335013e+07 1.129581259594e+07 1.133199406634e+07 1.138994094642e+07 1.135375947603e+07 1.139864711030e+07 1.142612241682e+07 1.138123478255e+07 1.136817553673e+07 1.139674762194e+07 1.145687575301e+07 1.143620712201e+07 1.146665696915e+07 1.147536313303e+07 1.148406929690e+07 1.152460384924e+07 1.166797291592e+07 1.167232599786e+07 1.171721363213e+07 1.166361983399e+07 1.161873219971e+07 1.157819764738e+07 1.153766309505e+07 1.158255072932e+07 1.157384456545e+07 1.156513840157e+07 1.160459790164e+07 1.166361983399e+07 1.165383861785e+07 1.171286055020e+07 1.176210126642e+07 1.176210126641e+07 1.181134198262e+07 1.176210126641e+07 1.176645434834e+07 1.181134198261e+07 1.176645434834e+07 1.172156671406e+07 1.176645434833e+07 1.181134198260e+07 1.176645434833e+07 1.181134198259e+07 1.177419735470e+07 1.177419735469e+07 1.172930972043e+07 1.168442208616e+07 1.169216509253e+07 1.167667907979e+07 1.167667907980e+07 1.162743836359e+07 1.158690381125e+07 1.155595172042e+07 1.151106408615e+07 1.152499962959e+07 1.149712854272e+07 1.149277546078e+07 1.144353474457e+07 1.140735327418e+07 1.137939325098e+07 1.133450561671e+07 1.135143322778e+07 1.131757800564e+07 1.130887184176e+07 1.125963112555e+07 1.122780273710e+07 1.120011746576e+07 1.115522983149e+07 1.117243219442e+07 1.113802746856e+07 1.112496822274e+07 1.107572750653e+07 1.104825220002e+07 1.101941544170e+07 1.097452780743e+07 1.099057868338e+07 1.095847693148e+07 1.094106460372e+07 1.089182388751e+07 1.084693625323e+07 1.082517084353e+07 1.080204861896e+07 1.075716098469e+07 1.077892639439e+07 1.074853422437e+07 1.070328386024e+07 1.071777932448e+07 1.068915112585e+07 1.070944904378e+07 1.066456140951e+07 1.073257126835e+07 1.070798155201e+07 1.075569349292e+07 1.077881571749e+07 1.080340543383e+07 1.084829306810e+07 1.087576837461e+07 1.086497689910e+07 1.082652765943e+07 1.086497690013e+07 1.077881571852e+07 1.077881571955e+07 1.073110377761e+07 1.068339183566e+07 1.066026961109e+07 1.061538197682e+07 1.063997169317e+07 1.061967377524e+07 1.057478614096e+07 1.059937585731e+07 1.056862095742e+07 1.052593968003e+07 1.054007241442e+07 1.050960058876e+07 1.052707420005e+07 1.048218656578e+07 1.054737211798e+07 1.051995809500e+07 1.056767003591e+07 1.058796795384e+07 1.058383176496e+07 1.057969557607e+07 1.053611982404e+07 1.043398667868e+07 1.048840788313e+07 1.047756243071e+07 1.049254407201e+07 1.047224615408e+07 1.042735851981e+07 1.045477254279e+07 1.043729893150e+07 1.039241129723e+07 1.041982532022e+07 1.039127677721e+07 1.034843422096e+07 1.036477331223e+07 1.033005005167e+07 1.034469935632e+07 1.029981172204e+07 1.036217296761e+07 1.033193463798e+07 1.037964657890e+07 1.039712019019e+07 1.038627473776e+07 1.037542928534e+07 1.033856279685e+07 1.023831857888e+07 1.029085085593e+07 1.027518506737e+07 1.030169630836e+07 1.028422269707e+07 1.023933506280e+07 1.026957339242e+07 1.025492408777e+07 1.021003645350e+07 1.024027478312e+07 1.021377131814e+07 1.015990125970e+07 1.017828542899e+07 1.015049951457e+07 1.016232451258e+07 1.011743687831e+07 1.017697381723e+07 1.014391118097e+07 1.019162312188e+07 1.020627242653e+07 1.019060663796e+07 1.017494084939e+07 1.014289469705e+07 1.004610752728e+07 1.009518275613e+07 1.007815367962e+07 1.011084854470e+07 1.009619924005e+07 1.005131160578e+07 1.008437424204e+07 1.007254924403e+07 1.002766160976e+07 1.006072424602e+07 1.002523835687e+07 9.970950937161e+06 9.980352682285e+06 9.970948977473e+06 9.926063302885e+06 9.881177628297e+06 9.881175668609e+06 9.836288034333e+06 9.881173708922e+06 9.798042003906e+06 9.798043963594e+06 9.788124015923e+06 9.816817919204e+06 9.845286766015e+06 9.890174400291e+06 9.899175091660e+06 9.935062034567e+06 9.979949668842e+06 9.991774666851e+06 9.955887723945e+06 1.000359966486e+07 1.001542466287e+07 9.998395586363e+06 9.981366509855e+06 9.950683645447e+06 9.854425352467e+06 9.902971704531e+06 9.885108216876e+06 9.920000781039e+06 9.908175783029e+06 9.863288148753e+06 9.843819993311e+06 9.824576899206e+06 9.796108052394e+06 9.806713411550e+06 9.788849923895e+06 9.759001470633e+06 9.700684170559e+06 9.671990267278e+06 9.691233361384e+06 9.605376708010e+06 9.653088648928e+06 9.614827517184e+06 9.614181077916e+06 9.594633020296e+06 9.566469136997e+06 9.538305253698e+06 9.518757196078e+06 9.470389591772e+06 9.498553475072e+06 9.282683813691e+06 9.327253769011e+06 9.310192033606e+06 9.099044772165e+06 9.139547990924e+06 9.129694977682e+06 8.918050019568e+06 8.955908949392e+06 8.955908947250e+06 8.689407674919e+06 8.717644866015e+06 8.726655875747e+06 8.862131042213e+06 8.894537440457e+06 8.883623582552e+06 9.039023616648e+06 9.076494297630e+06 9.049824779240e+06 9.060625941832e+06 9.023155260849e+06 8.744677895212e+06 8.795080224611e+06 8.766843033516e+06 8.823317415706e+06 8.845482554009e+06 8.801152277402e+06 8.851554606800e+06 8.861795866742e+06 8.883961005045e+06 8.916367403290e+06 8.906126143348e+06 8.926608663232e+06 8.948773801534e+06 8.986244482518e+06 9.023715163501e+06 8.976003222577e+06 8.996485742459e+06 8.985684579867e+06 8.937522521136e+06 8.964192039527e+06 8.905116122892e+06 8.872709724647e+06 8.840303326402e+06 8.792141267670e+06 8.803055125575e+06 8.763904076575e+06 8.735666885479e+06 8.707429694383e+06 8.659267635649e+06 8.650256625916e+06 8.494519169312e+06 8.544921498714e+06 8.551692237779e+06 8.656173280371e+06 8.646308186026e+06 8.605770950969e+06 8.565233715913e+06 8.555368621566e+06 8.493861737074e+06 8.534398972131e+06 8.294446770560e+06 8.342654748857e+06 8.323879450529e+06 8.100650878631e+06 8.143239782330e+06 8.132277909713e+06 7.910002037066e+06 7.949443890387e+06 7.949442493864e+06 7.677311850177e+06 7.668042598159e+06 7.632627383894e+06 7.597212169631e+06 7.587942917609e+06 7.533165918011e+06 7.568581132277e+06 7.354946551827e+06 7.399112519140e+06 7.380269232784e+06 7.179024280518e+06 7.220893152933e+06 7.204865460458e+06 7.002587191988e+06 7.044970881596e+06 7.031243965819e+06 6.824471449627e+06 6.868533793034e+06 6.855429000167e+06 6.644724246290e+06 6.690418050634e+06 6.676303919754e+06 6.464962740571e+06 6.510670847250e+06 6.495533076036e+06 6.287955194484e+06 6.330909341475e+06 6.317501889633e+06 6.114783804053e+06 6.153901795320e+06 6.146060818598e+06 5.943900808421e+06 5.980730404807e+06 5.980744298118e+06 5.899245150557e+06 5.899231257257e+06 5.828564988447e+06 5.873220646308e+06 5.852120411372e+06 5.741785349669e+06 5.720608625717e+06 5.697129691767e+06 5.786364518557e+06 5.762885584623e+06 5.831020176438e+06 5.809919941508e+06 5.875675834309e+06 5.920331492170e+06 5.964910661020e+06 5.941355238084e+06 6.006958152833e+06 6.051642619238e+06 6.030618873338e+06 6.054279593853e+06 6.009595127440e+06 5.988571381545e+06 6.025414871229e+06 6.070099337645e+06 6.062258360917e+06 6.077940314377e+06 6.098964060257e+06 6.143543229077e+06 6.119882508562e+06 6.185380125676e+06 6.230064592054e+06 6.209146143760e+06 6.232912161852e+06 6.188227695468e+06 6.167309247178e+06 6.198586261714e+06 6.243270728102e+06 6.229863276254e+06 6.256678179953e+06 6.277596628231e+06 6.322175797026e+06 6.298409778934e+06 6.363802098423e+06 6.408486564780e+06 6.387673414086e+06 6.411544729756e+06 6.366860263394e+06 6.346047112703e+06 6.375593807845e+06 6.420278274210e+06 6.405140502990e+06 6.435416045433e+06 6.456229196114e+06 6.500808364889e+06 6.476937049219e+06 6.542224071091e+06 6.586908537431e+06 6.566200684333e+06 6.590177297581e+06 6.545492831237e+06 6.524784978142e+06 6.555355313601e+06 6.600039779947e+06 6.585925649062e+06 6.614153910834e+06 6.634861763921e+06 6.679440932679e+06 6.655464319432e+06 6.720646043694e+06 6.765330510020e+06 6.744727954515e+06 6.768809865341e+06 6.724125399012e+06 6.703522843510e+06 6.735102516968e+06 6.779786983299e+06 6.766682190429e+06 6.792891776171e+06 6.813494331667e+06 6.858073500411e+06 6.833991589586e+06 7.111648002424e+06 7.131007754556e+06 7.086323288251e+06 7.092288250295e+06 7.136972716598e+06 7.068101041898e+06 7.042776327719e+06 7.017451613540e+06 6.993264405140e+06 6.969077196743e+06 6.943752482557e+06 6.899068016244e+06 6.923255224643e+06 6.947442433047e+06 6.902757966731e+06 6.882260708819e+06 6.913218259355e+06 6.957902725673e+06 6.944175809892e+06 6.971629641454e+06 6.992126899361e+06 7.041638821943e+06 7.060998574078e+06 7.089655347906e+06 7.134339814213e+06 7.118312121735e+06 7.150367506692e+06 7.175692220860e+06 7.225204143431e+06 7.205844391298e+06 7.285508484303e+06 7.330192950596e+06 7.300040780163e+06 7.314573076026e+06 7.269888609729e+06 7.239736439296e+06 7.265577619233e+06 7.310262085531e+06 7.291418799172e+06 7.329105371891e+06 7.359257542320e+06 7.408769464882e+06 7.394237169018e+06 7.478728718273e+06 7.523413184559e+06 7.488433557866e+06 7.498138397461e+06 7.453453931172e+06 7.418474304478e+06 7.443796985432e+06 7.488481451723e+06 7.469119666388e+06 7.507843237058e+06 7.542822863748e+06 7.592334786302e+06 7.582629946706e+06 7.637019252586e+06 7.676826335540e+06 7.681703718868e+06 7.671948952213e+06 7.716633418493e+06 7.761317884771e+06 7.766195268099e+06 7.815757117706e+06 7.771072651428e+06 7.726388185149e+06 7.775950034759e+06 7.686581102198e+06 7.721996316460e+06 7.775948638233e+06 7.766679386216e+06 7.820633104512e+06 7.865316174267e+06 7.865317570790e+06 7.865318967314e+06 7.860441583983e+06 7.909953506526e+06 7.860391656920e+06 8.157434685196e+06 8.210127212338e+06 8.159724882928e+06 8.104742158056e+06 8.155144487465e+06 8.054289901582e+06 8.056580099310e+06 8.058870297040e+06 8.008418040564e+06 7.957965784089e+06 7.960255981816e+06 7.909853652401e+06 7.960305908879e+06 8.010758165357e+06 7.960355835942e+06 7.960405763007e+06 7.999846219803e+06 8.050248549218e+06 8.039286676599e+06 8.061210421837e+06 8.061160494771e+06 8.109322553517e+06 8.162015080661e+06 8.193642111741e+06 8.244044441151e+06 8.225269142821e+06 8.262819739481e+06 8.260529541747e+06 8.308691600489e+06 8.255999073348e+06 8.299630663691e+06 8.350032993097e+06 8.354563461496e+06 8.409496259301e+06 8.359093929895e+06 8.363624398295e+06 8.393057078264e+06 8.443459407669e+06 8.422489758232e+06 8.464429057106e+06 8.459898588705e+06 8.508060647443e+06 8.453127849639e+06 8.558462976846e+06 8.608865306248e+06 8.666038374716e+06 8.706575609772e+06 8.766843031372e+06 8.756977937029e+06 8.817245360771e+06 8.867647688027e+06 8.867647690170e+06 8.867647692313e+06 8.895884883407e+06 8.928291281652e+06 8.965761962636e+06 9.003620890317e+06 9.051332831241e+06 9.041479817998e+06 9.061185844485e+06 9.071427104425e+06 9.098096622815e+06 9.146258681544e+06 9.135457518951e+06 9.220980473815e+06 9.268692414736e+06 9.231331518601e+06 9.241682563388e+06 9.193970622466e+06 9.156609726331e+06 9.187259931847e+06 9.234971872770e+06 9.217910137364e+06 9.252033608175e+06 9.289394504310e+06 9.337556563037e+06 9.327205518249e+06 9.413178590915e+06 9.460890531835e+06 9.423079517896e+06 9.432980444877e+06 9.385268503957e+06 9.347457490018e+06 9.374965709932e+06 9.422677650853e+06 9.402473929847e+06 9.442881371859e+06 9.480692385797e+06 9.528854444522e+06 9.518953517541e+06 9.576566385441e+06 9.624278326359e+06 9.633729135535e+06 9.661893018834e+06 9.711289529715e+06 9.691741472096e+06 9.729153017371e+06 9.748396111477e+06 9.767639205583e+06 9.739170358771e+06 9.786882299689e+06 9.777881608319e+06 9.729719549596e+06 9.710476455490e+06 9.681782552209e+06 9.672331743034e+06 9.691799898477e+06 9.653555827737e+06 9.612558116245e+06 9.622476104229e+06 9.595475781029e+06 9.557214649285e+06 9.509052590560e+06 9.499151663580e+06 9.468071940072e+06 9.422871410638e+06 9.439953745855e+06 9.402827546129e+06 9.365016532189e+06 9.316854473463e+06 9.306503428677e+06 9.278385234460e+06 9.229478177322e+06 9.249522041832e+06 9.210179311223e+06 9.172818415087e+06 9.124656356359e+06 9.113855193767e+06 9.084992001138e+06 9.035319241885e+06 9.054618107986e+06 9.017531076309e+06 8.990861557918e+06 8.942699499188e+06 8.921206958849e+06 8.890833065696e+06 8.841945785954e+06 8.859733951533e+06 8.824882841387e+06 8.813968983481e+06 8.765806924749e+06 8.728558723922e+06 8.697459609758e+06 8.647792583808e+06 8.664855528379e+06 8.632234606454e+06 8.641245616185e+06 8.593083557450e+06 8.535910488984e+06 8.503306407604e+06 8.450196109749e+06 8.465754087106e+06 8.439586371510e+06 8.446357110574e+06 8.398195051836e+06 8.343262254034e+06 8.305709933535e+06 8.250931600281e+06 8.261541338523e+06 8.246938136554e+06 8.251468604950e+06 8.203306546208e+06 8.150614019070e+06 8.106445424056e+06 8.054289559877e+06 8.058283023609e+06 8.006127501132e+06 7.957965100684e+06 7.957965442386e+06 7.909803383639e+06 7.871107845281e+06 7.871107503581e+06 7.860291802800e+06 7.860341729859e+06 7.810829807316e+06 7.761267957713e+06 7.722572077652e+06 7.680770158521e+06 7.691586201007e+06 7.662244112620e+06 7.622437029664e+06 7.572925107112e+06 7.563220267520e+06 7.532234390873e+06 7.484912919750e+06 7.503438965657e+06 7.464196422413e+06 7.429216795716e+06 7.379704873157e+06 7.365172577298e+06 7.336377152080e+06 7.275935807565e+06 7.296652304910e+06 7.266148732175e+06 7.235996561737e+06 7.186484639169e+06 7.167124887042e+06 7.127400039868e+06 7.068100785322e+06 7.077887860723e+06 7.018588862747e+06 6.969076683599e+06 6.969076940170e+06 6.919565017590e+06 6.883343687732e+06 6.883343431165e+06 6.874986105426e+06 6.854488847505e+06 6.809909678764e+06 6.785827767947e+06 6.749606181516e+06 6.711327078149e+06 6.719684660465e+06 6.696669430456e+06 6.676066874943e+06 6.631487706189e+06 6.607511092951e+06 6.577589571895e+06 6.535795351780e+06 6.550452999485e+06 6.518352755432e+06 6.497644902325e+06 6.453065733555e+06 6.429194417897e+06 6.402057845482e+06 6.357309731491e+06 6.374752327854e+06 6.340036080344e+06 6.319222929638e+06 6.274643760849e+06 6.250877742772e+06 6.223572225139e+06 6.177883003869e+06 6.195156655035e+06 6.161719405178e+06 6.140800956869e+06 6.096221788057e+06 6.072561067560e+06 6.044145497450e+06 5.999094103746e+06 6.015257702461e+06 5.983402729917e+06 5.962378983999e+06 5.917799815158e+06 5.894244392244e+06 5.865356597246e+06 5.821867254809e+06 5.837558628667e+06 5.805086054538e+06 5.783985819579e+06 5.739406650702e+06 5.715927716796e+06 5.694827481814e+06 5.688129748207e+06 5.645648330609e+06 5.662429530917e+06 5.626769379012e+06 5.650171823913e+06 5.673650757832e+06 5.652474033853e+06 5.607818375927e+06 5.631297309879e+06 5.563239206990e+06 5.541985993989e+06 5.575851089378e+06 5.629185726420e+06 5.618395163884e+06 5.673841384350e+06 5.716385458831e+06 5.718497042267e+06 5.763152700173e+06 5.809933834801e+06 5.807822251371e+06 5.854589492684e+06 5.899259043865e+06 
        </DataArray>
        <DataArray type="Float64" Name="STRESS_XX" format="ascii">
          -1.192805758575e+06 -1.231548090510e+06 -1.270891451771e+06 -1.310422482812e+06 -1.349923938729e+06 -1.389324839604e+06 -1.428702219167e+06 -1.468129851248e+06 -1.506506042705e+06 -1.545468453309e+06 -1.584517864616e+06 -1.583548954906e+06 -1.582829029443e+06 -1.582909125105e+06 -1.582976161319e+06 -1.582970754763e+06 -1.582929446229e+06 -1.582881812392e+06 -1.582848650877e+06 -1.582834893872e+06 -1.582827643012e+06 -1.582816901141e+06 -1.582815701488e+06 -1.582861198632e+06 -1.583023094407e+06 -1.583338802317e+06 -1.582724053001e+06 -1.583071078618e+06 -1.543506250009e+06 -1.504169627276e+06 -1.464803177649e+06 -1.425456480045e+06 -1.386105607750e+06 -1.386389855518e+06 -1.422230675163e+06 -1.458155156082e+06 -1.494086516484e+06 -1.530022816684e+06 -1.565937201157e+06 -1.601826813615e+06 -1.637729542380e+06 -1.673716951934e+06 -1.709516007383e+06 -1.745252119529e+06 -1.781383425850e+06 -1.780996727740e+06 -1.780828714223e+06 -1.780947665077e+06 -1.781123000413e+06 -1.781215151379e+06 -1.781260848764e+06 -1.781289749396e+06 -1.781308801955e+06 -1.781313230261e+06 -1.781304537629e+06 -1.781291750353e+06 -1.781284069181e+06 -1.781287346774e+06 -1.781302646546e+06 -1.781327066753e+06 -1.781356904745e+06 -1.781388339921e+06 -1.781413887186e+06 -1.781422158795e+06 -1.781408949708e+06 -1.781387874723e+06 -1.781384767676e+06 -1.781422177007e+06 -1.781502799110e+06 -1.781598537577e+06 -1.781652499999e+06 -1.781606109011e+06 -1.781524168434e+06 -1.780825785462e+06 -1.779948763752e+06 -1.741460974847e+06 -1.705509352614e+06 -1.668419065374e+06 -1.631343898054e+06 -1.594327804725e+06 -1.557312910897e+06 -1.520288049194e+06 -1.483262878865e+06 -1.446247469071e+06 -1.409245786944e+06 -1.372252158983e+06 -1.335238971226e+06 -1.298142382059e+06 -1.261018841399e+06 -1.224337295361e+06 -1.189580309690e+06 -1.190777056774e+06 -1.192618634287e+06 -1.192742817370e+06 -1.192690534234e+06 -1.192671699732e+06 -1.192682955701e+06 -1.192699034878e+06 -1.192709994003e+06 -1.192715641283e+06 -1.192717988766e+06 -1.192718806974e+06 -1.192719058344e+06 -1.192719129201e+06 -1.192719143442e+06 -1.192719141598e+06 -1.192719138427e+06 -1.192719131628e+06 -1.192719107040e+06 -1.192719038191e+06 -1.192718856566e+06 -1.192718380069e+06 -1.192717215282e+06 -1.192714699501e+06 -1.192709991537e+06 -1.192702429544e+06 -1.192692294747e+06 -1.192681817225e+06 -1.192675199291e+06 -1.192676211044e+06 -1.192684728956e+06 -1.192696252080e+06 -1.192705515422e+06 -1.192710077928e+06 -1.192710335799e+06 -1.192707488687e+06 -1.192702650797e+06 -1.192697694482e+06 -1.192696324280e+06 -1.192703946503e+06 -1.192726154742e+06 -1.192766604224e+06 -1.192822659511e+06 -1.192870594055e+06 -1.192829056452e+06 -1.192584615612e+06 -1.192127409748e+06 -1.754741882264e+06 -1.216469587815e+06 -1.213450543139e+06 -1.557269458748e+06 -1.551675623086e+06 -1.549915055654e+06 -1.221387895383e+06 -1.244677941610e+06 -1.724768778187e+06 -1.748712655488e+06 -1.221463802447e+06 -1.552292163349e+06 -1.247301030258e+06 -1.525223700856e+06 -1.518527420836e+06 -1.528325095859e+06 -1.549212756259e+06 -1.520099120215e+06 -1.547706767122e+06 -1.548036012610e+06 -1.547733637698e+06 -1.547484943808e+06 -1.547276062097e+06 -1.547266763982e+06 -1.547651493841e+06 -1.548341634653e+06 -1.548921361629e+06 -1.548949067070e+06 -1.548179349339e+06 -1.547021337451e+06 -1.482304593472e+06 -1.498925285113e+06 -1.441611772492e+06 -1.403973594997e+06 -1.510334305849e+06 -1.224943969198e+06 -1.226123120489e+06 -1.225800677739e+06 -1.225192593618e+06 -1.224697321455e+06 -1.224389842489e+06 -1.224250981079e+06 -1.224231390224e+06 -1.224272605653e+06 -1.224327013548e+06 -1.224367986564e+06 -1.224383373799e+06 -1.224361823756e+06 -1.224290195105e+06 -1.224173664918e+06 -1.224056077424e+06 -1.223999671148e+06 -1.224033656803e+06 -1.224132460239e+06 -1.224246164626e+06 -1.224339438006e+06 -1.224401648135e+06 -1.224436974860e+06 -1.224454259380e+06 -1.224461643038e+06 -1.224464522298e+06 -1.224465631614e+06 -1.224466055860e+06 -1.224466184752e+06 -1.224466216443e+06 -1.224466261384e+06 -1.224466274771e+06 -1.224466019049e+06 -1.224464899129e+06 -1.224461004622e+06 -1.224448740775e+06 -1.224415414159e+06 -1.224340146941e+06 -1.224204907921e+06 -1.224027623754e+06 -1.223976048227e+06 -1.224383677645e+06 -1.225085149209e+06 -1.280770272360e+06 -1.318080057254e+06 -1.355187386220e+06 -1.391882447137e+06 -1.428597126767e+06 -1.465449247402e+06 -1.502434382987e+06 -1.539480234045e+06 -1.576461614907e+06 -1.613305699146e+06 -1.650280995416e+06 -1.688299342911e+06 -1.746679121341e+06 -1.747019989985e+06 -1.747068110895e+06 -1.746698253847e+06 -1.746379134067e+06 -1.746374455727e+06 -1.746615380754e+06 -1.746881933903e+06 -1.747035780983e+06 -1.747073176439e+06 -1.747048606028e+06 -1.747008640672e+06 -1.746976095691e+06 -1.746958365529e+06 -1.746955476313e+06 -1.746963642626e+06 -1.746977165597e+06 -1.746989520659e+06 -1.746993992366e+06 -1.746991257430e+06 -1.747004157988e+06 -1.747037124695e+06 -1.746921238298e+06 -1.746199544515e+06 -1.744404237932e+06 -1.742004156511e+06 -1.742597106555e+06 -1.700155338178e+06 -1.654480131163e+06 -1.618975033041e+06 -1.586451249732e+06 -1.552622876565e+06 -1.516509023783e+06 -1.479379108367e+06 -1.443667994941e+06 -1.407880219715e+06 -1.708496833250e+06 -1.667587202590e+06 -1.631606208713e+06 -1.604149968773e+06 -1.713403393290e+06 -1.715460827575e+06 -1.715624324775e+06 -1.577803022243e+06 -1.715397850868e+06 -1.715350161184e+06 -1.715394128592e+06 -1.715391500179e+06 -1.715346309127e+06 -1.715292245850e+06 -1.715248375439e+06 -1.715226266328e+06 -1.715235289838e+06 -1.715280777631e+06 -1.715358312492e+06 -1.715441034622e+06 -1.715454401444e+06 -1.715256891205e+06 -1.714714595434e+06 -1.713931971706e+06 -1.713444365459e+06 -1.713853574738e+06 -1.715030801721e+06 -1.715919562501e+06 -1.714911344915e+06 -1.710323075631e+06 -1.286516674381e+06 -1.328759529151e+06 -1.370143332143e+06 -1.409759556024e+06 -1.449068868486e+06 -1.487219914273e+06 -1.257432824684e+06 -1.260662500888e+06 -1.259819126146e+06 -1.258308244084e+06 -1.257084035696e+06 -1.256264714273e+06 -1.255812028914e+06 -1.255659376459e+06 -1.255700556506e+06 -1.255818395287e+06 -1.255929687493e+06 -1.255991427443e+06 -1.255975533679e+06 -1.255843161009e+06 -1.255565558737e+06 -1.255204273619e+06 -1.254934908129e+06 -1.254914930801e+06 -1.255137587907e+06 -1.255462258574e+06 -1.255756537548e+06 -1.255966856331e+06 -1.256094714812e+06 -1.256161845883e+06 -1.256192677722e+06 -1.256205572383e+06 -1.256210818839e+06 -1.256212898678e+06 -1.256213516513e+06 -1.256213508507e+06 -1.256213466033e+06 -1.256213636908e+06 -1.256213776700e+06 -1.256212989307e+06 -1.256208531477e+06 -1.256193198650e+06 -1.256152548556e+06 -1.256060815189e+06 -1.255877116276e+06 -1.255568651591e+06 -1.255143750187e+06 -1.255155818073e+06 -1.256860458793e+06 -1.515253913630e+06 -1.481932812639e+06 -1.516129467463e+06 -1.518821721086e+06 -1.519384771416e+06 -1.518419492921e+06 -1.516684809608e+06 -1.515328081421e+06 -1.515084721294e+06 -1.515496355739e+06 -1.515969296453e+06 -1.516376949496e+06 -1.514983271516e+06 -1.481172802633e+06 -1.260757989099e+06 -1.301030856377e+06 -1.289320874283e+06 -1.284470114197e+06 -1.338381635331e+06 -1.374478324176e+06 -1.410673378430e+06 -1.323830139079e+06 -1.313743846394e+06 -1.447228465434e+06 -1.357933327976e+06 -1.392993532436e+06 -1.429052719076e+06 -1.342845829098e+06 -1.484119247599e+06 -1.465756288034e+06 -1.521246228035e+06 -1.558379169542e+06 -1.595158741341e+06 -1.630925913979e+06 -1.667629590271e+06 -1.679791914555e+06 -1.646670888766e+06 -1.683931984695e+06 -1.659509885578e+06 -1.612909317473e+06 -1.631625959677e+06 -1.502970136162e+06 -1.540492568466e+06 -1.577779928997e+06 -1.597143564756e+06 -1.284600395861e+06 -1.311155394067e+06 -1.331734311311e+06 -1.286836520811e+06 -1.287331172236e+06 -1.287654718532e+06 -1.287817359385e+06 -1.287907031460e+06 -1.287949494538e+06 -1.287961962905e+06 -1.287963134550e+06 -1.287962671679e+06 -1.287962622280e+06 -1.287963172386e+06 -1.287964124544e+06 -1.287964385783e+06 -1.287962098298e+06 -1.287954749268e+06 -1.287937376676e+06 -1.287897321884e+06 -1.287806235223e+06 -1.287616204477e+06 -1.287270488570e+06 -1.286728258073e+06 -1.285999728373e+06 -1.285261440188e+06 -1.284913634711e+06 -1.285256288827e+06 -1.286090724858e+06 -1.286892202244e+06 -1.287353073976e+06 -1.287515454481e+06 -1.287493877042e+06 -1.287346502570e+06 -1.287127311413e+06 -1.286940940879e+06 -1.286971898578e+06 -1.287431108270e+06 -1.288415742220e+06 -1.289964092623e+06 -1.292326350174e+06 -1.682004947250e+06 -1.654069621338e+06 -1.678702395088e+06 -1.676648570481e+06 -1.677174602511e+06 -1.679052228703e+06 -1.680511865610e+06 -1.681097017373e+06 -1.681125948634e+06 -1.680972190818e+06 -1.680811603230e+06 -1.680704800607e+06 -1.680665367752e+06 -1.680687052281e+06 -1.680757710823e+06 -1.680866757372e+06 -1.680999624569e+06 -1.681100485759e+06 -1.681019052370e+06 -1.680736942823e+06 -1.681016754507e+06 -1.682225210849e+06 -1.682529025804e+06 -1.677097121600e+06 -1.619567587075e+06 -1.320073182291e+06 -1.333843432495e+06 -1.295906017386e+06 -1.302400413583e+06 -1.351116332465e+06 -1.336776795779e+06 -1.329671107001e+06 -1.391127751300e+06 -1.429230310738e+06 -1.467582375192e+06 -1.480801693618e+06 -1.487416362256e+06 -1.445433605795e+06 -1.457432205460e+06 -1.410785593360e+06 -1.374931662224e+06 -1.428341690719e+06 -1.397723770055e+06 -1.364529591392e+06 -1.325862944270e+06 -1.358918358412e+06 -1.323620496493e+06 -1.357060261356e+06 -1.321954113092e+06 -1.320893751914e+06 -1.355392747343e+06 -1.352928763132e+06 -1.489501813588e+06 -1.462072643801e+06 -1.440103610381e+06 -1.417476808002e+06 -1.389843563579e+06 -1.488494348689e+06 -1.485511315054e+06 -1.481565163112e+06 -1.480235862929e+06 -1.481236872098e+06 -1.482123842502e+06 -1.482724151884e+06 -1.482094191167e+06 -1.320669217147e+06 -1.352218397526e+06 -1.320935548313e+06 -1.321313934444e+06 -1.321601127786e+06 -1.321704524350e+06 -1.321566484938e+06 -1.321075432072e+06 -1.319813783553e+06 -1.317800018917e+06 -1.316291369337e+06 -1.316454281873e+06 -1.317941062737e+06 -1.319567148880e+06 -1.320770559274e+06 -1.321575972677e+06 -1.322038588109e+06 -1.322266022981e+06 -1.322369696308e+06 -1.322418703142e+06 -1.322442269877e+06 -1.322451130193e+06 -1.322451251916e+06 -1.322447737572e+06 -1.322443877988e+06 -1.322440287038e+06 -1.322437932332e+06 -1.322441171690e+06 -1.322446427658e+06 -1.322418228717e+06 -1.322311804675e+06 -1.322153056275e+06 -1.321956935548e+06 -1.321347366419e+06 -1.352662729534e+06 -1.462018297110e+06 -1.437869840510e+06 -1.413311813192e+06 -1.386914348288e+06 -1.391565012232e+06 -1.385025342356e+06 -1.382670148065e+06 -1.383919300130e+06 -1.353329709741e+06 -1.353843541676e+06 -1.354059816248e+06 -1.353953166901e+06 -1.353523073080e+06 -1.352766271335e+06 -1.349490929243e+06 -1.344059628437e+06 -1.342508432513e+06 -1.345993817977e+06 -1.349632641623e+06 -1.351850065174e+06 -1.353428801819e+06 -1.354368102937e+06 -1.354809529579e+06 -1.354997021531e+06 -1.355089924964e+06 -1.355142029535e+06 -1.355165440595e+06 -1.355167869526e+06 -1.355159206272e+06 -1.355147239117e+06 -1.355133238510e+06 -1.355115587926e+06 -1.355105046260e+06 -1.355128287612e+06 -1.355170906198e+06 -1.355089412919e+06 -1.354796600158e+06 -1.354639741434e+06 -1.354881522095e+06 -1.435575230673e+06 -1.410488786493e+06 -1.385198599867e+06 -1.375270797145e+06 -1.410254473698e+06 -1.446691661254e+06 -1.483842393258e+06 -1.356819780235e+06 -1.521735283582e+06 -1.560079332665e+06 -1.580960858496e+06 -1.459067740790e+06 -1.428209783139e+06 -1.418807891608e+06 -1.408606968413e+06 -1.414344404500e+06 -1.453140733812e+06 -1.443603686501e+06 -1.447266959244e+06 -1.416072360835e+06 -1.448149785647e+06 -1.417442219735e+06 -1.386070076315e+06 -1.449114416404e+06 -1.449561175099e+06 -1.417259093760e+06 -1.385584485626e+06 -1.450333924006e+06 -1.417409360417e+06 -1.386439697734e+06 -1.385861126043e+06 -1.418640143792e+06 -1.449867813009e+06 -1.416899319448e+06 -1.385068355193e+06 -1.384515554374e+06 -1.372264042975e+06 -1.365213617865e+06 -1.366637865637e+06 -1.377905601062e+06 -1.382201555322e+06 -1.384953514929e+06 -1.386753658702e+06 -1.387491199756e+06 -1.387710646059e+06 -1.387823705505e+06 -1.387914490127e+06 -1.387966550411e+06 -1.387977135309e+06 -1.387961226392e+06 -1.387934956336e+06 -1.387903184065e+06 -1.387856735075e+06 -1.387792449377e+06 -1.387765465873e+06 -1.387887618395e+06 -1.388095168895e+06 -1.387745408693e+06 -1.386776961855e+06 -1.387165603319e+06 -1.413397867448e+06 -1.445288027044e+06 -1.464497052057e+06 -1.434956858891e+06 -1.414701161889e+06 -1.383197626271e+06 -1.411182205816e+06 -1.434263430869e+06 -1.465161446848e+06 -1.504243448315e+06 -1.543498142474e+06 -1.415790659241e+06 -1.444091933180e+06 -1.419531678756e+06 -1.419824844909e+06 -1.419765542136e+06 -1.419740258394e+06 -1.419871958787e+06 -1.419982577482e+06 -1.420016484088e+06 -1.419995197995e+06 -1.419949576975e+06 -1.419895462629e+06 -1.419821913505e+06 -1.419693803790e+06 -1.419502179660e+06 -1.419448462169e+06 -1.419946472697e+06 -1.420816275274e+06 -1.419142310338e+06 -1.415763047836e+06 -1.647028541686e+06 -1.607195837657e+06 -1.640323026854e+06 -1.639290645119e+06 -1.643664556903e+06 -1.647324643973e+06 -1.648752727116e+06 -1.648741846165e+06 -1.648405787705e+06 -1.648095200941e+06 -1.647881998431e+06 -1.647780071859e+06 -1.647775381316e+06 -1.647850726406e+06 -1.647997826619e+06 -1.648222857094e+06 -1.648521883512e+06 -1.648749262607e+06 -1.648224361895e+06 -1.646758282229e+06 -1.648574298552e+06 -1.653986508699e+06 -1.656708951303e+06 -1.639787701366e+06 -1.606362789519e+06 -1.352369725373e+06 -1.347991233251e+06 -1.390691913650e+06 -1.418283469471e+06 -1.574004535250e+06 -1.606477251223e+06 -1.631678831678e+06 -1.621953853252e+06 -1.603332067157e+06 -1.573923895734e+06 -1.593507503884e+06 -1.604703082285e+06 -1.613854971821e+06 -1.617582503505e+06 -1.616814746489e+06 -1.615884435020e+06 -1.615322750656e+06 -1.614933110401e+06 -1.614750776313e+06 -1.615627894609e+06 -1.614759797060e+06 -1.614906027608e+06 -1.615177747741e+06 -1.615612887952e+06 -1.616331216250e+06 -1.617196583174e+06 -1.615235903936e+06 -1.607932311664e+06 -1.585788162566e+06 -1.452987385707e+06 -1.483495726777e+06 -1.541385640596e+06 -1.564283554833e+06 -1.502020388661e+06 -1.464246813049e+06 -1.428318085257e+06 -1.392374164108e+06 -1.375092396106e+06 -1.411870316513e+06 -1.430146616566e+06 -1.447098203503e+06 -1.482868515929e+06 -1.463348492087e+06 -1.447308281070e+06 -1.437289130421e+06 -1.444798054406e+06 -1.521588961293e+06 -1.498080132707e+06 -1.478007148149e+06 -1.462591047522e+06 -1.456410493441e+06 -1.451697154615e+06 -1.449839170071e+06 -1.449998876575e+06 -1.450604697104e+06 -1.450912190348e+06 -1.451058392498e+06 -1.451149549979e+06 -1.451230547478e+06 -1.451300305306e+06 -1.451324938650e+06 -1.451240394381e+06 -1.450977772687e+06 -1.450758236905e+06 -1.451519720263e+06 -1.454200848615e+06 -1.537822868374e+06 -1.505639212539e+06 -1.491668318282e+06 -1.561445946248e+06 -1.522731064262e+06 -1.577948691387e+06 -1.591359521397e+06 -1.586917620694e+06 -1.476383033511e+06 -1.505247502217e+06 -1.535592413541e+06 -1.560568098733e+06 -1.497259604179e+06 -1.486769114357e+06 -1.523203078447e+06 -1.480672095204e+06 -1.511539077755e+06 -1.481601572118e+06 -1.504634806598e+06 -1.484244992439e+06 -1.484880470791e+06 -1.485115223578e+06 -1.485234565508e+06 -1.485338154702e+06 -1.485453809422e+06 -1.485570356660e+06 -1.485635218359e+06 -1.485482726923e+06 -1.484664179131e+06 -1.483741644831e+06 -1.487368583842e+06 -1.497603552749e+06 -1.531969972825e+06 -1.546576724151e+06 -1.526382961164e+06 -1.512494135277e+06 -1.516842425883e+06 -1.520301626884e+06 -1.520344773043e+06 -1.520073936834e+06 -1.519835572267e+06 -1.519656604044e+06 -1.519530969082e+06 -1.519441078141e+06 -1.519349045485e+06 -1.519164648023e+06 -1.518363280997e+06 -1.549116972932e+06 -1.527075760523e+06 -1.583190928846e+06 -1.550966665054e+06 -1.582520113273e+06 -1.549420310942e+06 -1.581841400176e+06 -1.550070459649e+06 -1.550951813752e+06 -1.550983508480e+06 -1.582499034973e+06 -1.583344247929e+06 -1.550155645395e+06 -1.583377049430e+06 -1.581644226915e+06 -1.582803986134e+06 -1.550318438183e+06 -1.550611228929e+06 -1.582283471613e+06 -1.584003650412e+06 -1.551084775168e+06 -1.552081701052e+06 -1.584792254840e+06 -1.590327380141e+06 -1.553940843086e+06 -1.541556213245e+06 -1.578593299706e+06 -1.563362719715e+06 -1.625435831265e+06 -1.663538670068e+06 -1.703097039015e+06 -1.742837626604e+06 -1.782493974594e+06 -1.822072020345e+06 -1.861637793898e+06 -1.901078653173e+06 -1.939992536858e+06 -1.979093932907e+06 -1.978171743446e+06 -1.977388066271e+06 -1.976322112958e+06 -1.976328199511e+06 -1.976424624058e+06 -1.976476812831e+06 -1.976483559120e+06 -1.976471863941e+06 -1.976425031451e+06 -1.976373838836e+06 -1.976407054310e+06 -1.976565852595e+06 -1.976919340761e+06 -1.977306279353e+06 -1.977619203112e+06 -1.941513425183e+06 -1.905664621497e+06 -1.869799314963e+06 -1.833928750750e+06 -1.798061750044e+06 -1.762203476516e+06 -1.726350994733e+06 -1.690488034356e+06 -1.654567593267e+06 -1.618952446351e+06 -1.610333997999e+06 -1.952118702716e+06 -1.948101298933e+06 -1.615225217492e+06 -1.944978891186e+06 -1.917400788265e+06 -1.921010694197e+06 -1.640520426244e+06 -1.947965463491e+06 -1.925628668542e+06 -1.884126579673e+06 -1.897914769828e+06 -1.848112007365e+06 -1.811293028326e+06 -1.775008052509e+06 -1.740057980762e+06 -1.706006395141e+06 -1.670506738880e+06 -1.627386198651e+06 -1.943850630027e+06 -1.916725365570e+06 -1.942073375129e+06 -1.941242724120e+06 -1.941685272706e+06 -1.942266528546e+06 -1.942823534386e+06 -1.943282323353e+06 -1.943152751062e+06 -1.941511848860e+06 -1.938444102822e+06 -1.938811818492e+06 -1.617695983589e+06 -1.618818314069e+06 -1.618430316237e+06 -1.617806170019e+06 -1.617381925432e+06 -1.617218111175e+06 -1.617204875923e+06 -1.617115970933e+06 -1.616757570511e+06 -1.616263900122e+06 -1.616124242264e+06 -1.617004759516e+06 -1.620019125044e+06 -1.655055815995e+06 -1.688244610943e+06 -1.647473710822e+06 -1.677976865622e+06 -1.645281045750e+06 -1.674853537532e+06 -1.718574701906e+06 -1.702481192894e+06 -1.702131704371e+06 -1.645282594014e+06 -1.674546818802e+06 -1.701824104486e+06 -1.646450065028e+06 -1.647594638477e+06 -1.647887576707e+06 -1.647718536716e+06 -1.647761565094e+06 -1.648332724977e+06 -1.649541265971e+06 -1.651200393835e+06 -1.676360168905e+06 -1.703630591073e+06 -1.750347439220e+06 -1.726720400955e+06 -1.727797905302e+06 -1.728140542592e+06 -1.786074429727e+06 -1.824402450571e+06 -1.862892299777e+06 -1.880753526028e+06 -1.679675524694e+06 -1.680902361821e+06 -1.680029608607e+06 -1.679501595196e+06 -1.679804244152e+06 -1.681218127123e+06 -1.683914097869e+06 -1.653330943360e+06 -1.689881534540e+06 -1.649489588486e+06 -1.708397458401e+06 -1.731749012752e+06 -1.908035838772e+06 -1.883718391604e+06 -1.844277945439e+06 -1.803632453530e+06 -1.762917723163e+06 -1.720746391825e+06 -1.678255371773e+06 -1.717078389535e+06 -1.712802675351e+06 -1.710975429990e+06 -1.710378054394e+06 -1.711401432127e+06 -1.714218662305e+06 -1.720166862344e+06 -1.896397272917e+06 -1.907603648152e+06 -1.913120266111e+06 -1.913539898793e+06 -1.912455250424e+06 -1.911193359771e+06 -1.910205663633e+06 -1.908817534363e+06 -1.907498236107e+06 -1.909135954343e+06 -1.867723495467e+06 -1.826704061048e+06 -1.785792974088e+06 -1.744228708943e+06 -1.695627200032e+06 -1.730386381070e+06 -1.769873124299e+06 -1.808480051964e+06 -1.848710894359e+06 -1.865024574997e+06 -1.885420054994e+06 -1.883824829057e+06 -1.881691454812e+06 -1.877587359420e+06 -1.876067703826e+06 -1.875361677727e+06 -1.871319899281e+06 -1.863711839286e+06 -1.758390148216e+06 -1.748968780531e+06 -1.753601263709e+06 -1.798052036473e+06 -1.774419409965e+06 -1.839845623879e+06 -1.809529993934e+06 -1.776607632307e+06 -1.758427587135e+06 -1.738509643974e+06 -1.829490895220e+06 -1.789127930194e+06 -1.763597364351e+06 -1.841376200227e+06 -1.752246976935e+06 -1.745458466955e+06 -1.843949822895e+06 -1.742630316184e+06 -1.838814775580e+06 -1.740125400679e+06 -1.740893598968e+06 -1.743202909611e+06 -1.747704816682e+06 -1.756339620470e+06 -1.791165365208e+06 -1.824938247111e+06 -1.780313497470e+06 -1.806096268386e+06 -1.831504432049e+06 -1.858351891006e+06 -1.774932934148e+06 -1.771326682878e+06 -1.767919140827e+06 -1.803503638631e+06 -1.800045728072e+06 -1.795945619849e+06 -1.829111544718e+06 -1.825075086110e+06 -1.854987805239e+06 -1.848497681051e+06 -1.817013204077e+06 -1.789856973584e+06 -1.800711932784e+06 -1.813621401331e+06 -1.821905779699e+06 -1.809503983286e+06 -1.779927967235e+06 -1.770666343481e+06 -1.795651278954e+06 -1.776361435713e+06 -1.767974418901e+06 -2.017404817482e+06 -2.056933391648e+06 -2.096799638471e+06 -2.136827404088e+06 -2.176905357935e+06 -2.215633495105e+06 -2.254123136549e+06 -2.292918812256e+06 -2.331581337462e+06 -2.370247918042e+06 -2.408938435662e+06 -2.447690557381e+06 -2.486438401015e+06 -2.525182799579e+06 -2.563691850615e+06 -2.599946251883e+06 -2.635807408636e+06 -2.671969525512e+06 -2.708070034071e+06 -2.744169641837e+06 -2.780283602507e+06 -2.816404226374e+06 -2.852522593626e+06 -2.888632992769e+06 -2.924728210787e+06 -2.960347252449e+06 -2.960212096044e+06 -2.921368769217e+06 -2.882054213752e+06 -2.842403735566e+06 -2.802826319875e+06 -2.763013055889e+06 -2.724673397135e+06 -2.686571653606e+06 -2.648165871123e+06 -2.609770641533e+06 -2.571284194356e+06 -2.533056270801e+06 -2.494929337147e+06 -2.456541595680e+06 -2.418112529446e+06 -2.379606895466e+06 -2.339134053368e+06 -2.298764289022e+06 -2.258153764739e+06 -2.217617538404e+06 -2.176863062315e+06 -2.140899715209e+06 -2.105161300076e+06 -2.069156429530e+06 -2.033210840415e+06 -1.997278084541e+06 -1.961342452428e+06 -1.925397442215e+06 -1.889443317368e+06 -1.853489112922e+06 -1.817550294076e+06 -2.361738687038e+06 -2.548370511313e+06 -2.387843464860e+06 -2.176798055017e+06 -2.176180395388e+06 -2.176525903545e+06 -2.176714875147e+06 -2.176726844027e+06 -2.176683821560e+06 -2.176654648510e+06 -2.176636259925e+06 -2.176627300911e+06 -2.176622337012e+06 -2.176617222948e+06 -2.176610560294e+06 -2.176603571016e+06 -2.176598639107e+06 -2.176597435157e+06 -2.176599836511e+06 -2.176604373035e+06 -2.176609182244e+06 -2.176612667386e+06 -2.176614097914e+06 -2.176613913299e+06 -2.176612455643e+06 -2.176607684398e+06 -2.176595388530e+06 -2.176578811558e+06 -2.176631065022e+06 -2.176532611947e+06 -2.176454350600e+06 -2.176601398659e+06 -2.175925439661e+06 -2.174955216093e+06 -2.133968239360e+06 -2.094483060913e+06 -2.054806847690e+06 -2.015164527319e+06 -1.975624950040e+06 -1.936076990744e+06 -1.896491341949e+06 -1.857885316777e+06 -1.818922464716e+06 -2.148980162724e+06 -1.806455867022e+06 -1.811000785634e+06 -1.812943920520e+06 -2.143883385634e+06 -2.117874367924e+06 -1.842398338515e+06 -1.837233883962e+06 -1.811211962598e+06 -1.834367399556e+06 -1.876657389939e+06 -1.863889041968e+06 -1.913493053726e+06 -1.950320954126e+06 -1.985759663929e+06 -2.019761882978e+06 -2.053288788049e+06 -2.088620554259e+06 -2.131839617687e+06 -1.814620726713e+06 -1.843656466031e+06 -1.815156913034e+06 -1.815514800674e+06 -1.815666231972e+06 -1.815954438646e+06 -1.816284200617e+06 -1.816373900556e+06 -1.816118213252e+06 -1.815678599209e+06 -1.815261134464e+06 -1.815011968901e+06 -1.815002727403e+06 -1.815200420743e+06 -1.815521979279e+06 -1.815902534385e+06 -1.816268596071e+06 -1.816447736410e+06 -1.816246878649e+06 -1.815767603684e+06 -1.815450649363e+06 -1.815715728728e+06 -1.816684114242e+06 -1.818075092633e+06 -1.819290489485e+06 -1.819498239699e+06 -1.817716487288e+06 -1.848637756675e+06 -2.141153862428e+06 -2.139780416880e+06 -2.140035631019e+06 -2.140649343455e+06 -2.141138888513e+06 -2.141393680598e+06 -2.141462287480e+06 -2.141445419177e+06 -2.141416198616e+06 -2.141381153206e+06 -2.141316521597e+06 -2.141219640355e+06 -2.141112801181e+06 -2.141028249365e+06 -2.140999702476e+06 -2.141045852472e+06 -2.141148482184e+06 -2.141254330305e+06 -2.141307730135e+06 -2.141288018945e+06 -2.141231061124e+06 -2.141222171704e+06 -2.141380791241e+06 -2.141758313257e+06 -2.142069673460e+06 -2.141556036664e+06 -2.138907345534e+06 -2.103668542777e+06 -2.070631437588e+06 -2.110570369680e+06 -2.080034618777e+06 -2.111875665584e+06 -2.040885905928e+06 -2.056078647283e+06 -2.081729335026e+06 -2.054962687672e+06 -2.111091530371e+06 -2.080170549130e+06 -2.109948387364e+06 -2.076839040819e+06 -2.109465287594e+06 -2.109496662124e+06 -2.109673648524e+06 -2.109799533959e+06 -2.109743047248e+06 -2.109514958999e+06 -2.109230888756e+06 -2.109044482129e+06 -2.109047383673e+06 -2.109216771774e+06 -2.109468303274e+06 -2.109720390567e+06 -2.109904272575e+06 -2.109980851165e+06 -2.110006541377e+06 -2.110068012716e+06 -2.110078641868e+06 -2.109799360109e+06 -2.109028522172e+06 -2.107729929145e+06 -2.106207280033e+06 -2.075373462803e+06 -2.075672972546e+06 -2.076077260333e+06 -2.076523066527e+06 -2.076591125860e+06 -2.076240753534e+06 -2.075642636536e+06 -2.075111283018e+06 -2.074958912081e+06 -2.075223792007e+06 -2.075704473424e+06 -2.076217539185e+06 -2.076641318616e+06 -2.076842898188e+06 -2.076754912498e+06 -2.076719650157e+06 -2.076934243435e+06 -2.076918518218e+06 -2.076200440944e+06 -2.074505749531e+06 -2.071758944672e+06 -2.052324866902e+06 -2.009908701239e+06 -2.032510137192e+06 -2.027968890582e+06 -1.976206301426e+06 -1.940169849299e+06 -1.901725492421e+06 -1.884564790987e+06 -2.104469706990e+06 -2.067105593012e+06 -2.046112444850e+06 -2.021179595623e+06 -2.037434323293e+06 -2.040891178563e+06 -2.040933355218e+06 -2.042364107511e+06 -2.042937964481e+06 -2.042566270519e+06 -2.041546660449e+06 -2.040278140682e+06 -2.039519367179e+06 -2.039827543146e+06 -2.040735182580e+06 -2.041670343355e+06 -2.042502064581e+06 -2.043082480078e+06 -2.043069363137e+06 -2.042178224371e+06 -2.042373962148e+06 -2.043299028524e+06 -2.043065640582e+06 -2.041731369382e+06 -2.038504054272e+06 -2.033455395752e+06 -2.108161554519e+06 -2.003174080942e+06 -2.003410562563e+06 -1.972040596614e+06 -2.078211341213e+06 -2.035473457138e+06 -1.993684524755e+06 -1.953691048567e+06 -1.913356451671e+06 -1.874364138887e+06 -1.854516533381e+06 -1.854980186529e+06 -1.852656901815e+06 -1.849473030021e+06 -1.846697463876e+06 -1.845436116328e+06 -1.845766513224e+06 -1.847054653467e+06 -1.848047098753e+06 -1.847943236987e+06 -1.847197761711e+06 -1.846388634621e+06 -1.845647404705e+06 -1.845039408319e+06 -1.844755985312e+06 -1.845025054587e+06 -1.845814557929e+06 -1.846852557229e+06 -1.847821524175e+06 -1.848105403451e+06 -1.847442863710e+06 -1.846591076879e+06 -1.846253253653e+06 -1.846349266318e+06 -1.847785333655e+06 -2.061117734525e+06 -2.026263607183e+06 -2.012194921892e+06 -1.970743410722e+06 -1.984456837645e+06 -1.932471597007e+06 -1.949127439474e+06 -1.890789010905e+06 -1.919311398467e+06 -1.895861771147e+06 -1.891905603260e+06 -1.886693691952e+06 -1.880229339166e+06 -1.876476241994e+06 -1.876037472366e+06 -1.878248962499e+06 -1.881696790842e+06 -1.882484584522e+06 -1.880924921875e+06 -1.879485019951e+06 -1.878207338295e+06 -1.876991383271e+06 -1.875926589052e+06 -1.875690756408e+06 -1.876749806914e+06 -1.878553176873e+06 -1.880565993985e+06 -1.882580564055e+06 -1.881947933810e+06 -1.879604068926e+06 -1.878366020858e+06 -1.878674127296e+06 -1.881278566917e+06 -1.993859607250e+06 -2.000914430109e+06 -2.007057381135e+06 -1.958814679669e+06 -1.930941184575e+06 -1.928865755534e+06 -2.009105819335e+06 -2.009053300596e+06 -2.009098007322e+06 -2.003974368399e+06 -2.008543089943e+06 -2.009312815399e+06 -2.008495808482e+06 -2.007274785309e+06 -2.006777858245e+06 -2.004221885577e+06 -2.002279809195e+06 -2.002640074463e+06 -2.005257818920e+06 -2.007435061846e+06 -2.008920060686e+06 -2.009031683325e+06 -2.006979665101e+06 -2.003216114285e+06 -1.963737046484e+06 -1.972681399811e+06 -1.983260466656e+06 -1.974381490664e+06 -1.929912824745e+06 -1.915558276013e+06 -1.952629255218e+06 -1.906559381874e+06 -1.937559862740e+06 -1.903750607264e+06 -1.926264233395e+06 -1.950770509571e+06 -1.979590389959e+06 -1.906256069048e+06 -1.929788212968e+06 -1.955093389088e+06 -1.979892543590e+06 -1.934758734755e+06 -1.958473065890e+06 -1.973770072199e+06 -1.977656883613e+06 -1.979834005028e+06 -1.911376899606e+06 -1.946819219638e+06 -1.954678141377e+06 -1.919780629597e+06 -1.915507379370e+06 -1.949057221941e+06 -1.913071057541e+06 -1.911252051385e+06 -1.909500691052e+06 -1.977342009224e+06 -1.945120774877e+06 -1.975476880183e+06 -1.942942841297e+06 -1.974611208093e+06 -1.941865729755e+06 -1.906662542882e+06 -1.939501631191e+06 -1.973499699363e+06 -1.968757186849e+06 -1.934147426740e+06 -1.903780576413e+06 -1.962669411667e+06 -1.927814506974e+06 -1.904410857964e+06 -1.969786550665e+06 -1.935123273987e+06 -1.973713263645e+06 -1.907224285550e+06 -1.939674686531e+06 -1.976584604717e+06 -1.910172745694e+06 -1.943212071136e+06 -1.978954163139e+06 -1.978520787584e+06 -1.914546511581e+06 -1.948322483189e+06 -1.974343382667e+06 -1.920751469732e+06 -1.954662086889e+06 -1.913431815958e+06 -1.947594688197e+06 -1.909958078579e+06 -1.941725527434e+06 -1.909125096858e+06 -1.937521590004e+06 -1.966838211541e+06 -1.912310812718e+06 -1.939920617505e+06 -1.960288437827e+06 -1.984920691156e+06 -2.012505549982e+06 -1.918083345048e+06 -1.929784561595e+06 -1.957959325495e+06 -1.992072233359e+06 -1.947342196703e+06 -1.980551738265e+06 -1.969622707938e+06 -1.998836699332e+06 -2.011163470347e+06 -2.020509000125e+06 -2.059270980059e+06 -2.099257757964e+06 -2.138728094678e+06 -2.178187962038e+06 -2.177275921107e+06 -2.176614404463e+06 -2.175761698916e+06 -2.175716898985e+06 -2.175733931204e+06 -2.175701803331e+06 -2.175662582700e+06 -2.175716316922e+06 -2.175598463909e+06 -2.175549609862e+06 -2.175789538122e+06 -2.176322516734e+06 -2.176379875072e+06 -2.006260719917e+06 -2.150871511534e+06 -2.145287605800e+06 -2.012604208716e+06 -2.143985794433e+06 -2.146312544054e+06 -2.118537277512e+06 -2.038765949997e+06 -2.111803618653e+06 -2.122466286152e+06 -2.143170054794e+06 -2.115638966510e+06 -2.141307305311e+06 -2.139895059957e+06 -2.141963822265e+06 -2.143713817040e+06 -2.140495419729e+06 -2.145420815107e+06 -2.142062209117e+06 -2.144338824454e+06 -2.142448990255e+06 -2.074293846869e+06 -2.093787983072e+06 -2.025600378104e+06 -2.015500465820e+06 -2.056547743875e+06 -2.011354452569e+06 -2.008976608117e+06 -2.008172682318e+06 -2.009191320984e+06 -2.009667479643e+06 -2.009119183112e+06 -2.008635561797e+06 -2.008663824773e+06 -2.009908503674e+06 -2.013745817288e+06 -2.054947604960e+06 -2.105625091154e+06 -2.078256969667e+06 -2.111253525512e+06 -2.082441487184e+06 -2.046590554455e+06 -2.041603670107e+06 -2.037922598509e+06 -2.076212459310e+06 -2.067881728054e+06 -2.104220821593e+06 -2.037976158727e+06 -2.062821999402e+06 -2.085244071171e+06 -2.107823325169e+06 -2.044143223089e+06 -2.065248691092e+06 -2.082251381887e+06 -2.041857419400e+06 -2.040939459614e+06 -2.039408552525e+06 -2.040169776750e+06 -2.045698976393e+06 -2.083108228809e+06 -2.117049646961e+06 -2.070735042624e+06 -2.097441346396e+06 -2.120986352262e+06 -2.067976323853e+06 -2.087079886732e+06 -2.103499962150e+06 -2.116789781484e+06 -2.121282165966e+06 -2.070932471789e+06 -2.095138227568e+06 -2.100396408896e+06 -2.123977209943e+06 -2.076379217225e+06 -2.109244656946e+06 -2.117122669499e+06 -2.093410393443e+06 -2.071337529267e+06 -2.072922319161e+06 -2.093296977635e+06 -2.115472261965e+06 -2.088611614873e+06 -2.218473390333e+06 -2.256091458950e+06 -2.294915734196e+06 -2.333729375450e+06 -2.372496152647e+06 -2.411311170294e+06 -2.450185914561e+06 -2.488972387668e+06 -2.527245928982e+06 -2.565682762699e+06 -2.564715579910e+06 -2.563910521970e+06 -2.563813604852e+06 -2.563845058791e+06 -2.563957469147e+06 -2.564051491312e+06 -2.564100722275e+06 -2.564140512341e+06 -2.564269268857e+06 -2.564528000739e+06 -2.563863470536e+06 -2.538881537736e+06 -2.204496570209e+06 -2.533101549305e+06 -2.210681343357e+06 -2.507870278380e+06 -2.531357207263e+06 -2.235799830725e+06 -2.533735237402e+06 -2.500234184032e+06 -2.509965240788e+06 -2.530639051081e+06 -2.502280010803e+06 -2.529029254349e+06 -2.529608096699e+06 -2.529346835290e+06 -2.527769060603e+06 -2.525139773854e+06 -2.522702356907e+06 -2.524334414381e+06 -2.464268870132e+06 -2.480656191155e+06 -2.424872924357e+06 -2.384830634146e+06 -2.345495591188e+06 -2.305539612454e+06 -2.262622357837e+06 -2.218733695292e+06 -2.225533119097e+06 -2.211771273378e+06 -2.206831204694e+06 -2.207527017717e+06 -2.209125845034e+06 -2.209858164066e+06 -2.209563929430e+06 -2.209302465898e+06 -2.209830211772e+06 -2.212534416959e+06 -2.277920799225e+06 -2.255674924452e+06 -2.233485147675e+06 -2.236229720322e+06 -2.319779124778e+06 -2.357834402656e+06 -2.398088491813e+06 -2.241122968654e+06 -2.441408461734e+06 -2.470692661725e+06 -2.431595818570e+06 -2.391765651906e+06 -2.352777347826e+06 -2.313932943396e+06 -2.274010579717e+06 -2.251522166966e+06 -2.496798033138e+06 -2.464981087173e+06 -2.244705255457e+06 -2.244521388566e+06 -2.242514888367e+06 -2.242550607899e+06 -2.246003218343e+06 -2.495014199396e+06 -2.454911658341e+06 -2.412364592295e+06 -2.372639118410e+06 -2.334498461436e+06 -2.295836932677e+06 -2.282911581029e+06 -2.276029188521e+06 -2.318737212073e+06 -2.306449662719e+06 -2.354223508246e+06 -2.336654559576e+06 -2.274280157477e+06 -2.301486499076e+06 -2.323579459665e+06 -2.391672704191e+06 -2.369418829559e+06 -2.348153128810e+06 -2.276975697857e+06 -2.302877283186e+06 -2.326560516361e+06 -2.432512912115e+06 -2.405568273513e+06 -2.379714338628e+06 -2.481524360961e+06 -2.487511918985e+06 -2.493369839834e+06 -2.498522595805e+06 -2.445234111604e+06 -2.415164221348e+06 -2.499418839294e+06 -2.496134055169e+06 -2.453624974247e+06 -2.463395571266e+06 -2.472823335219e+06 -2.463394819517e+06 -2.285394067178e+06 -2.353971384830e+06 -2.329947804272e+06 -2.308472049690e+06 -2.384318548776e+06 -2.420151743579e+06 -2.439132202687e+06 -2.354854245223e+06 -2.332454052050e+06 -2.321806186148e+06 -2.379521387363e+06 -2.400221534055e+06 -2.348749316329e+06 -2.365917696365e+06 -2.279592824487e+06 -2.314292615699e+06 -2.338796543990e+06 -2.270254517366e+06 -2.258277117860e+06 -2.457962508819e+06 -2.414004020570e+06 -2.365207129579e+06 -2.333684760071e+06 -2.299428079692e+06 -2.286881045394e+06 -2.326765694816e+06 -2.415871307363e+06 -2.378135002155e+06 -2.344681936493e+06 -2.363183932473e+06 -2.311663403135e+06 -2.606880374655e+06 -2.645263828460e+06 -2.685120721212e+06 -2.725171276961e+06 -2.765130018872e+06 -2.804962745826e+06 -2.844736574838e+06 -2.884398269724e+06 -2.923572539795e+06 -2.960778353208e+06 -2.959502882778e+06 -2.957401466051e+06 -2.956927180650e+06 -2.956892194686e+06 -2.957081205948e+06 -2.957195974038e+06 -2.957362526883e+06 -2.957737443505e+06 -2.959617126710e+06 -2.935659278307e+06 -2.591715393186e+06 -2.931197221093e+06 -2.596725978010e+06 -2.900156143562e+06 -2.905297615920e+06 -2.928174147281e+06 -2.622216325585e+06 -2.930315062345e+06 -2.907677428907e+06 -2.866790768048e+06 -2.879589244583e+06 -2.830914529307e+06 -2.793828922750e+06 -2.756380520902e+06 -2.719924308660e+06 -2.685697956131e+06 -2.651517962492e+06 -2.609097464993e+06 -2.924675518459e+06 -2.896908656010e+06 -2.922847927422e+06 -2.922429898447e+06 -2.920796599798e+06 -2.918858501865e+06 -2.921001188676e+06 -2.599336155335e+06 -2.600622734014e+06 -2.600396493014e+06 -2.599929881633e+06 -2.599688341367e+06 -2.599833997905e+06 -2.600572107776e+06 -2.602780539780e+06 -2.638106675923e+06 -2.667357933412e+06 -2.633324259801e+06 -2.666319560804e+06 -2.632017774102e+06 -2.695145684581e+06 -2.666075369868e+06 -2.631518472866e+06 -2.665342384004e+06 -2.631702468019e+06 -2.632570751846e+06 -2.664980438114e+06 -2.633860337198e+06 -2.665864441618e+06 -2.667887640039e+06 -2.729753618298e+06 -2.768284124568e+06 -2.807733828600e+06 -2.845210048281e+06 -2.861264401224e+06 -2.699994520381e+06 -2.700217180463e+06 -2.698061996588e+06 -2.698123355269e+06 -2.700479139127e+06 -2.634544189849e+06 -2.672162825164e+06 -2.704576766499e+06 -2.632187239536e+06 -2.868419815554e+06 -2.828395875961e+06 -2.788016231825e+06 -2.746915447599e+06 -2.704232738869e+06 -2.661227385179e+06 -2.678809915026e+06 -2.729342264977e+06 -2.713148885673e+06 -2.772151120278e+06 -2.812954758913e+06 -2.853665157081e+06 -2.893178598750e+06 -2.739739844608e+06 -2.732001423068e+06 -2.728468249745e+06 -2.731475926516e+06 -2.784525299542e+06 -2.767781618253e+06 -2.823592474257e+06 -2.804030319799e+06 -2.758254902883e+06 -2.754217203429e+06 -2.788669917834e+06 -2.780909346264e+06 -2.840558357614e+06 -2.819052886828e+06 -2.803975283940e+06 -2.737204450785e+06 -2.772152965333e+06 -2.735916747067e+06 -2.752870895266e+06 -2.795775133368e+06 -2.834425411961e+06 -2.877112350812e+06 -2.880519687279e+06 -2.886533030204e+06 -2.829928667564e+06 -2.887843665716e+06 -2.883889569533e+06 -2.851189089392e+06 -2.826077049095e+06 -2.853768737624e+06 -2.846940906026e+06 -2.827909637565e+06 -2.809694200382e+06 -2.775829996437e+06 -2.804384547656e+06 -2.379460289816e+06 -2.379837973490e+06 -2.380158301299e+06 -2.380314670526e+06 -2.380369682382e+06 -2.380345793932e+06 -2.380305321730e+06 -2.380284354040e+06 -2.380280481494e+06 -2.380284058420e+06 -2.380286496931e+06 -2.380283693189e+06 -2.380276659682e+06 -2.380269546797e+06 -2.380266377724e+06 -2.380268211815e+06 -2.380272092403e+06 -2.380273514929e+06 -2.380270930911e+06 -2.380266791493e+06 -2.380263612151e+06 -2.380259531324e+06 -2.380247022820e+06 -2.380222380651e+06 -2.380212634475e+06 -2.380270798009e+06 -2.380396915202e+06 -2.380513240507e+06 -2.380478026491e+06 -2.379343867487e+06 -2.378553360262e+06 -2.377636079044e+06 -2.335464167297e+06 -2.295991693189e+06 -2.255278687162e+06 -2.215096912488e+06 -2.202715338257e+06 -2.349950181742e+06 -2.208497374808e+06 -2.343427941630e+06 -2.209668121246e+06 -2.207532481429e+06 -2.235580395249e+06 -2.316801121815e+06 -2.242613539076e+06 -2.231831006032e+06 -2.210908886074e+06 -2.238965926283e+06 -2.213126330017e+06 -2.214932279354e+06 -2.214193974038e+06 -2.213972347487e+06 -2.213697297757e+06 -2.213473619122e+06 -2.213324205829e+06 -2.213234948522e+06 -2.213187664818e+06 -2.213168631872e+06 -2.213166430886e+06 -2.213173643268e+06 -2.213185178237e+06 -2.213197591082e+06 -2.213208792289e+06 -2.213215209135e+06 -2.213215183301e+06 -2.212265263797e+06 -2.213180303994e+06 -2.213139677552e+06 -2.213077408830e+06 -2.213004055296e+06 -2.212244159608e+06 -2.214654693218e+06 -2.209439618006e+06 -2.211135882965e+06 -2.280830306983e+06 -2.261122087710e+06 -2.330381554108e+06 -2.340815547423e+06 -2.299090977917e+06 -2.345240004615e+06 -2.347837329017e+06 -2.348549734299e+06 -2.347687709866e+06 -2.346675030857e+06 -2.346120403448e+06 -2.345827614828e+06 -2.345669728298e+06 -2.345585464662e+06 -2.345544228866e+06 -2.345530082771e+06 -2.345532174463e+06 -2.345541879099e+06 -2.345554707104e+06 -2.345568322997e+06 -2.345580442032e+06 -2.345588578604e+06 -2.345590064492e+06 -2.345582215723e+06 -2.345564114808e+06 -2.345542834899e+06 -2.345550300206e+06 -2.345686581069e+06 -2.346184306947e+06 -2.346603518557e+06 -2.345800450541e+06 -2.342121012221e+06 -2.300102119663e+06 -2.248495093340e+06 -2.276541364628e+06 -2.243847189087e+06 -2.272988392430e+06 -2.309568379463e+06 -2.315134101770e+06 -2.319232903630e+06 -2.279948581560e+06 -2.289521736739e+06 -2.317687710684e+06 -2.295745935030e+06 -2.251823156559e+06 -2.272682799655e+06 -2.247605446771e+06 -2.315359820852e+06 -2.282220491059e+06 -2.248761015255e+06 -2.282778952048e+06 -2.248119026268e+06 -2.247622859442e+06 -2.247301907764e+06 -2.314987057625e+06 -2.281832494567e+06 -2.314311829986e+06 -2.281311747836e+06 -2.313952688947e+06 -2.281014181677e+06 -2.313757033781e+06 -2.247111748400e+06 -2.280850983746e+06 -2.312715354022e+06 -2.311727586592e+06 -2.311717495403e+06 -2.311725887629e+06 -2.311742730016e+06 -2.311763834827e+06 -2.311784693009e+06 -2.311800745728e+06 -2.311808016225e+06 -2.311801678811e+06 -2.311778090077e+06 -2.311738658474e+06 -2.311701414203e+06 -2.311733486835e+06 -2.312092777822e+06 -2.313217643965e+06 -2.314180893410e+06 -2.309134361738e+06 -2.270888907692e+06 -2.236368420943e+06 -2.283008370027e+06 -2.255059378548e+06 -2.231514544962e+06 -2.285543420968e+06 -2.266817572156e+06 -2.245105429639e+06 -2.243044502835e+06 -2.264524541612e+06 -2.245546469361e+06 -2.247008254139e+06 -2.279832335305e+06 -2.246959951298e+06 -2.279801343043e+06 -2.246945966222e+06 -2.246010112740e+06 -2.278861818920e+06 -2.277934096926e+06 -2.277953116711e+06 -2.246027700748e+06 -2.246045956705e+06 -2.278915275141e+06 -2.247003292120e+06 -2.246078887645e+06 -2.278934037985e+06 -2.278007827515e+06 -2.278007848466e+06 -2.246082347908e+06 -2.245136296680e+06 -2.277988534614e+06 -2.278889360450e+06 -2.245107921880e+06 -2.246941658765e+06 -2.245927599419e+06 -2.278832506385e+06 -2.277818606351e+06 -2.278660259254e+06 -2.245809428738e+06 -2.277834623730e+06 -2.763382130797e+06 -2.763425784822e+06 -2.763936548537e+06 -2.764178759227e+06 -2.764212420432e+06 -2.764203623680e+06 -2.764161451532e+06 -2.764119290268e+06 -2.764112559631e+06 -2.764115219954e+06 -2.764117025951e+06 -2.764120713995e+06 -2.764128313644e+06 -2.764132497172e+06 -2.764122878125e+06 -2.764107653879e+06 -2.764103528316e+06 -2.764107215358e+06 -2.764110938709e+06 -2.764112802485e+06 -2.764106863553e+06 -2.764099154855e+06 -2.764103014592e+06 -2.764112834404e+06 -2.764119491390e+06 -2.764127081160e+06 -2.764143257341e+06 -2.764170985363e+06 -2.764213538006e+06 -2.764287350611e+06 -2.764312024608e+06 -2.763295453923e+06 -2.762512626543e+06 -2.761594712839e+06 -2.721677221370e+06 -2.684406085007e+06 -2.645943030096e+06 -2.607493639618e+06 -2.569093721902e+06 -2.530647586748e+06 -2.492142355595e+06 -2.453723636523e+06 -2.415811707557e+06 -2.404282227351e+06 -2.735489924036e+06 -2.409971285385e+06 -2.729320522523e+06 -2.434990976703e+06 -2.411720006516e+06 -2.704436233728e+06 -2.409369975948e+06 -2.442438601511e+06 -2.432807698252e+06 -2.412602547827e+06 -2.440406535902e+06 -2.414724787048e+06 -2.414835971236e+06 -2.415011050758e+06 -2.414768672982e+06 -2.414560080399e+06 -2.414569440522e+06 -2.414727666742e+06 -2.414885138498e+06 -2.414929134130e+06 -2.414839691440e+06 -2.414683772129e+06 -2.414561540979e+06 -2.414540463951e+06 -2.414608051494e+06 -2.414674644213e+06 -2.414658347480e+06 -2.414573350829e+06 -2.414495349624e+06 -2.414453344078e+06 -2.414362189223e+06 -2.414026604741e+06 -2.413446117886e+06 -2.413457538539e+06 -2.415007272188e+06 -2.417667263081e+06 -2.420164314846e+06 -2.418624588178e+06 -2.477889548072e+06 -2.461565027918e+06 -2.516844799679e+06 -2.556676032312e+06 -2.595745355031e+06 -2.635217057523e+06 -2.677660246902e+06 -2.721269394903e+06 -2.714048024582e+06 -2.727338622720e+06 -2.732454574341e+06 -2.732219734454e+06 -2.730506660584e+06 -2.728980919081e+06 -2.728742059414e+06 -2.729295581987e+06 -2.729776142743e+06 -2.730024535504e+06 -2.730261188630e+06 -2.730594198508e+06 -2.730750704973e+06 -2.730373307613e+06 -2.729844466699e+06 -2.729747537268e+06 -2.729896573291e+06 -2.730039583574e+06 -2.730105113931e+06 -2.729866067042e+06 -2.729604838662e+06 -2.729777499159e+06 -2.730103318499e+06 -2.730264131835e+06 -2.730395940745e+06 -2.730683620742e+06 -2.730995463856e+06 -2.730929130370e+06 -2.730209285027e+06 -2.727469707360e+06 -2.662076436457e+06 -2.682537185439e+06 -2.704535188123e+06 -2.702996390743e+06 -2.621117518537e+06 -2.583609010100e+06 -2.543076088062e+06 -2.699643465254e+06 -2.499828582804e+06 -2.471795344651e+06 -2.510489353920e+06 -2.549904280098e+06 -2.588492659675e+06 -2.626961747961e+06 -2.666533822493e+06 -2.688753471081e+06 -2.446257918676e+06 -2.476663356033e+06 -2.694330442862e+06 -2.691901536007e+06 -2.693466324634e+06 -2.695052617487e+06 -2.695707868386e+06 -2.696009690110e+06 -2.696747588023e+06 -2.697838404205e+06 -2.697952661082e+06 -2.696037739592e+06 -2.694984608553e+06 -2.695598165876e+06 -2.695840240793e+06 -2.696225257155e+06 -2.696391304203e+06 -2.695106498711e+06 -2.694771666020e+06 -2.695995067176e+06 -2.696506746782e+06 -2.696536197641e+06 -2.696848122009e+06 -2.697833970870e+06 -2.698572884661e+06 -2.697897534572e+06 -2.694243508542e+06 -2.447666915421e+06 -2.487322032711e+06 -2.529389447222e+06 -2.568679376927e+06 -2.606434155103e+06 -2.644762326765e+06 -2.657507434339e+06 -2.664433140812e+06 -2.621902880179e+06 -2.634006866540e+06 -2.586706405014e+06 -2.603883987647e+06 -2.666646315814e+06 -2.638981055962e+06 -2.616734124143e+06 -2.549627135865e+06 -2.571274941491e+06 -2.591940794880e+06 -2.665565771743e+06 -2.637867628915e+06 -2.613335823549e+06 -2.662556606386e+06 -2.662197013635e+06 -2.663086428704e+06 -2.663145876869e+06 -2.661708240040e+06 -2.657434907623e+06 -2.663539480532e+06 -2.663705400115e+06 -2.661563654808e+06 -2.661815667736e+06 -2.661365582550e+06 -2.658435437429e+06 -2.665888631258e+06 -2.667324455008e+06 -2.664288116919e+06 -2.661885233945e+06 -2.661419218517e+06 -2.661558614379e+06 -2.659908351440e+06 -2.655440106078e+06 -2.509237823784e+06 -2.535409352410e+06 -2.560211832949e+06 -2.584809243080e+06 -2.608672294543e+06 -2.633399213384e+06 -2.651310029740e+06 -2.460835863967e+06 -2.454655705779e+06 -2.448634612057e+06 -2.443432717215e+06 -2.496214155879e+06 -2.524991504500e+06 -2.553744672118e+06 -2.580452898544e+06 -2.601911741893e+06 -2.442516963625e+06 -2.444504155942e+06 -2.445579890212e+06 -2.445752107138e+06 -2.445774073540e+06 -2.445929485244e+06 -2.446212070644e+06 -2.446400960460e+06 -2.446298952719e+06 -2.446040934827e+06 -2.445945657068e+06 -2.446155547816e+06 -2.446567706151e+06 -2.446932461106e+06 -2.447002428366e+06 -2.446704817047e+06 -2.446217990164e+06 -2.445901867240e+06 -2.446113006749e+06 -2.446909056770e+06 -2.447477877461e+06 -2.447587285600e+06 -2.487290247153e+06 -2.477235936334e+06 -2.467878140316e+06 -2.476160299466e+06 -2.518478872796e+06 -2.500009480180e+06 -2.554893709117e+06 -2.578081304359e+06 -2.536986183308e+06 -2.565210509554e+06 -2.480066423091e+06 -2.479900642345e+06 -2.479594725667e+06 -2.479690769248e+06 -2.480258110923e+06 -2.481025727593e+06 -2.481220990136e+06 -2.480556847136e+06 -2.479939973338e+06 -2.480067115724e+06 -2.480850158861e+06 -2.481855203432e+06 -2.482438618018e+06 -2.482171707455e+06 -2.481159650951e+06 -2.480015986919e+06 -2.479577380676e+06 -2.480564940423e+06 -2.483179611611e+06 -2.484270784039e+06 -2.483226604950e+06 -2.524446052911e+06 -2.576734246617e+06 -2.608099712189e+06 -2.640840756641e+06 -2.664666352093e+06 -2.673210784934e+06 -2.676929396564e+06 -2.650538094146e+06 -2.655138160692e+06 -2.616630454262e+06 -2.645376641559e+06 -2.629656003035e+06 -2.597132290018e+06 -2.560128299553e+06 -2.522687735967e+06 -2.525355196693e+06 -2.516261266987e+06 -2.513199838558e+06 -2.513471874768e+06 -2.515658921542e+06 -2.518267742248e+06 -2.519736529497e+06 -2.519320945970e+06 -2.517366720430e+06 -2.515279000077e+06 -2.514261222911e+06 -2.514740556757e+06 -2.517125148890e+06 -2.517964348309e+06 -2.516048645517e+06 -2.514434933173e+06 -2.513777554400e+06 -2.514161279180e+06 -2.515821508578e+06 -2.615691441654e+06 -2.584587460132e+06 -2.555422735602e+06 -2.632812334983e+06 -2.602470643305e+06 -2.578191653778e+06 -2.561970330498e+06 -2.548400246816e+06 -2.542875618801e+06 -2.542724379294e+06 -2.545204844307e+06 -2.551666570974e+06 -2.555960320009e+06 -2.557011661032e+06 -2.554299654015e+06 -2.549369596665e+06 -2.546426477723e+06 -2.545693878454e+06 -2.547650718637e+06 -2.556582748050e+06 -2.551457182118e+06 -2.547530894715e+06 -2.545557724678e+06 -2.545294299332e+06 -2.546651521291e+06 -2.588359474211e+06 -2.575255212757e+06 -2.568323836406e+06 -2.567806858192e+06 -2.571362197949e+06 -2.614832689960e+06 -2.595793375342e+06 -2.588275157864e+06 -2.614706900936e+06 -2.627385239048e+06 -2.586692700389e+06 -2.594644809304e+06 -2.631935696301e+06 -2.601490051035e+06 -2.630337736152e+06 -2.606657790666e+06 -2.578112131055e+06 -2.592625902140e+06 -2.629282979147e+06 -2.594899124330e+06 -2.632345582363e+06 -2.597979061302e+06 -2.584911713822e+06 -2.638659969600e+06 -2.619432883289e+06 -2.646303070146e+06 -2.578474774476e+06 -2.609569055765e+06 -2.638642793667e+06 -2.575897777001e+06 -2.604498850663e+06 -2.628821825703e+06 -2.631421401963e+06 -2.603787781804e+06 -2.575469683431e+06 -2.631930414172e+06 -2.602511201993e+06 -2.575589318789e+06 -2.630298232873e+06 -2.596625472445e+06 -2.588782935652e+06 -2.581029652452e+06 -2.576771693560e+06 -2.575517642786e+06 -2.576072692373e+06 -2.628720971920e+06 -2.614696561760e+06 -2.642502090960e+06 -2.606930842226e+06 -2.635876250283e+06 -2.603597155225e+06 -2.627397732738e+06 -2.631342831721e+06 -2.604429846599e+06 -2.633374083413e+06 -2.605327833590e+06 -2.577586973994e+06 -2.633710302835e+06 -2.603388834446e+06 -2.631017126300e+06 -2.624971331252e+06 -2.588721567154e+06 -2.597412095634e+06 -2.550875865547e+06 -2.578552373147e+06 -2.518879630272e+06 -2.563752727968e+06 -2.960274617273e+06 -2.959658395776e+06 -2.959363939770e+06 -2.959502144191e+06 -2.959566716192e+06 -2.959564058216e+06 -2.959525740399e+06 -2.959487866912e+06 -2.959463305731e+06 -2.959449725697e+06 -2.959442787551e+06 -2.959439335402e+06 -2.959437549332e+06 -2.959436526816e+06 -2.959435873612e+06 -2.959435418081e+06 -2.959435070135e+06 -2.959434776407e+06 -2.959434509601e+06 -2.959434261792e+06 -2.959434039336e+06 -2.959433869103e+06 -2.959433824776e+06 -2.959434077578e+06 -2.959434953617e+06 -2.959436930218e+06 -2.959440399700e+06 -2.959444778915e+06 -2.959445799897e+06 -2.959428145909e+06 -2.959354888707e+06 -2.959259055518e+06 -2.957410114330e+06 -2.957945146702e+06 -2.957408628337e+06 -2.918345792558e+06 -2.879748753460e+06 -2.840030110578e+06 -2.800832579002e+06 -2.932159675211e+06 -2.788931351210e+06 -2.794276855983e+06 -2.925092949935e+06 -2.796416785648e+06 -2.793221265892e+06 -2.820843884612e+06 -2.899222173087e+06 -2.827561411215e+06 -2.816921190358e+06 -2.796272147577e+06 -2.823630084130e+06 -2.798000721991e+06 -2.799504938142e+06 -2.800118483511e+06 -2.800938304997e+06 -2.799255599972e+06 -2.798722556611e+06 -2.798430282918e+06 -2.798284290535e+06 -2.798214065450e+06 -2.798179220331e+06 -2.798159799444e+06 -2.798147397626e+06 -2.798138772825e+06 -2.798132362886e+06 -2.798127138156e+06 -2.798122495605e+06 -2.798118252573e+06 -2.798114581569e+06 -2.798112098312e+06 -2.798112312118e+06 -2.798118621914e+06 -2.798138111614e+06 -2.798184727334e+06 -2.798285455471e+06 -2.798499813825e+06 -2.798974673362e+06 -2.800072396514e+06 -2.802348820987e+06 -2.802244305852e+06 -2.864854513142e+06 -2.845403002244e+06 -2.913296102442e+06 -2.923286369716e+06 -2.882425947487e+06 -2.927357833197e+06 -2.929723636746e+06 -2.930774720751e+06 -2.930635011041e+06 -2.929915243873e+06 -2.929246710831e+06 -2.928824055478e+06 -2.928593135146e+06 -2.928475865226e+06 -2.928417588745e+06 -2.928387293264e+06 -2.928369791564e+06 -2.928358514129e+06 -2.928350593865e+06 -2.928344500623e+06 -2.928339321917e+06 -2.928334603638e+06 -2.928330227893e+06 -2.928326334922e+06 -2.928323458265e+06 -2.928323027490e+06 -2.928328286568e+06 -2.928345291057e+06 -2.928382676233e+06 -2.928447003488e+06 -2.928525595767e+06 -2.928534337053e+06 -2.928176128679e+06 -2.926749100550e+06 -2.923072107767e+06 -2.880306844117e+06 -2.833687760818e+06 -2.860022241097e+06 -2.827783465734e+06 -2.856555243240e+06 -2.892205087363e+06 -2.896998457184e+06 -2.900576074362e+06 -2.862460313481e+06 -2.870238534472e+06 -2.834166271801e+06 -2.901157546232e+06 -2.874463205824e+06 -2.851838236890e+06 -2.829231644809e+06 -2.899468392361e+06 -2.872028876850e+06 -2.852002221802e+06 -2.837505627518e+06 -2.897706346707e+06 -2.895749984989e+06 -2.895119345588e+06 -2.894800443320e+06 -2.894651734744e+06 -2.894573965317e+06 -2.894532811446e+06 -2.894508213226e+06 -2.894491826078e+06 -2.894479992202e+06 -2.894470654229e+06 -2.894462572029e+06 -2.894455192872e+06 -2.894448522821e+06 -2.894443138815e+06 -2.894440647599e+06 -2.894444789302e+06 -2.894463124119e+06 -2.894511059545e+06 -2.894601269864e+06 -2.895659185999e+06 -2.894948498671e+06 -2.895034085906e+06 -2.894221978122e+06 -2.887766819842e+06 -2.841563886823e+06 -2.862705506419e+06 -2.832842978176e+06 -2.862401256683e+06 -2.831043835776e+06 -2.861562514488e+06 -2.830120828758e+06 -2.861986637641e+06 -2.829704282132e+06 -2.828586490432e+06 -2.861711248291e+06 -2.859738558665e+06 -2.828484809073e+06 -2.860574718162e+06 -2.829353863580e+06 -2.860539504950e+06 -2.829334967949e+06 -2.860526882402e+06 -2.829329992495e+06 -2.860525529778e+06 -2.829331623321e+06 -2.860529468546e+06 -2.829336284756e+06 -2.860535824923e+06 -2.829342349045e+06 -2.860543350543e+06 -2.829349177467e+06 -2.860551685575e+06 -2.829356782787e+06 -2.860561194653e+06 -2.829365845401e+06 -2.860573012136e+06 -2.829377682628e+06 -2.860588953933e+06 -2.829394154064e+06 -2.860611845368e+06 -2.829418695168e+06 -2.860648139273e+06 -2.829460450595e+06 -2.860714743200e+06 -2.828622082565e+06 -2.859922600069e+06 -2.861117083003e+06 -2.828786599452e+06 -2.830069981217e+06 -2.861704372056e+06 -2.830780067949e+06 -2.864604245151e+06 -2.834038294364e+06 -2.868514500071e+06 -1.753871675292e+06 -1.771584421178e+06 -1.763214773896e+06 -1.761349463168e+06 -1.743891979589e+06 -1.762685853956e+06 -1.726259231247e+06 -1.727289464979e+06 -1.721506685499e+06 -1.704318308157e+06 -1.646076046943e+06 -1.636617522855e+06 -1.627921553629e+06 -1.541065370621e+06 -1.534149928909e+06 -1.522558569878e+06 -1.468394053938e+06 -1.460939574932e+06 -1.450264818856e+06 -1.396856901113e+06 -1.394984787307e+06 -1.384602601102e+06 -1.375901948899e+06 -1.375192252759e+06 -1.375575090140e+06 -1.365360171507e+06 -1.395078838184e+06 -1.378934148209e+06 -1.388079201078e+06 -1.375402619261e+06 -1.367946932562e+06 -1.386215061007e+06 -1.403960740603e+06 -1.404017462752e+06 -1.414256532913e+06 -1.432604423020e+06 -1.425214285676e+06 -1.439944925927e+06 -1.423853329800e+06 -1.441590508364e+06 -1.405890508766e+06 -1.415163993358e+06 -1.433535244803e+06 -1.423193833645e+06 -1.473485859151e+06 -1.453728619764e+06 -1.462645396873e+06 -1.445201662692e+06 -1.461483096592e+06 -1.479220275072e+06 -1.475866424180e+06 -1.486039444293e+06 -1.504894589296e+06 -1.497325242458e+06 -1.511807646510e+06 -1.499112863718e+06 -1.516850042574e+06 -1.484552320387e+06 -1.493645686493e+06 -1.511328431815e+06 -1.500930289304e+06 -1.547610266934e+06 -1.531322834760e+06 -1.535506794580e+06 -1.523843324072e+06 -1.536742631435e+06 -1.554479810381e+06 -1.547739024810e+06 -1.558725507229e+06 -1.575980811985e+06 -1.569362928175e+06 -1.583636415085e+06 -1.593625661555e+06 -1.610277459173e+06 -1.602573754908e+06 -1.619518249571e+06 -1.610291801104e+06 -1.628004546724e+06 -1.600850067291e+06 -1.592109578633e+06 -1.574372399462e+06 -1.563092631222e+06 -1.567432212574e+06 -1.582974889144e+06 -1.567423485800e+06 -1.600991583089e+06 -1.605073298613e+06 -1.623055693943e+06 -1.662171113385e+06 -1.640708665789e+06 -1.648821447404e+06 -1.636566588242e+06 -1.646186769513e+06 -1.663899515237e+06 -1.655441872689e+06 -1.663720723207e+06 -1.686593704466e+06 -1.676666089183e+06 -1.691493068434e+06 -1.682081738010e+06 -1.699794483681e+06 -1.672543696591e+06 -1.680674238498e+06 -1.698058025810e+06 -1.688358828397e+06 -1.733075501623e+06 -1.716412271229e+06 -1.723150471124e+06 -1.708405843236e+06 -1.717976706496e+06 -1.735689452424e+06 -1.744247032567e+06 -1.751402243115e+06 -1.768477455796e+06 -1.757672529339e+06 -1.840834571437e+06 -1.822904431559e+06 -1.829864078842e+06 -1.911524128658e+06 -1.895109755097e+06 -1.901083156458e+06 -1.977558222575e+06 -1.962886446356e+06 -1.962865952887e+06 -2.065240053253e+06 -2.041496784945e+06 -2.050313119152e+06 -2.141019572567e+06 -2.124559220519e+06 -2.128949262496e+06 -2.258106297051e+06 -2.236496397902e+06 -2.240772910446e+06 -2.338323696328e+06 -2.318813360559e+06 -2.325736016524e+06 -2.416740403482e+06 -2.397252776550e+06 -2.405005002303e+06 -2.493366405042e+06 -2.475627972404e+06 -2.482596255392e+06 -2.564107579112e+06 -2.548704405977e+06 -2.548698735276e+06 -2.582246901308e+06 -2.582088536711e+06 -2.586477786668e+06 -2.604585458056e+06 -2.678895380082e+06 -2.662083959505e+06 -2.668722333165e+06 -2.750330149094e+06 -2.732543044353e+06 -2.738333159173e+06 -2.823664294676e+06 -2.805594566239e+06 -2.812547943136e+06 -2.894583887216e+06 -2.878121244668e+06 -2.883791792414e+06 -2.960260735395e+06 -2.943207877597e+06 -2.943043617260e+06 -2.960433769185e+06 -2.946365745949e+06 -2.946329203923e+06 -2.928171452772e+06 -2.912909120220e+06 -2.916051225183e+06 -2.907000875823e+06 -2.923198753521e+06 -2.905369244081e+06 -2.941230400976e+06 -2.960163456617e+06 -2.941292922099e+06 -2.936862897688e+06 -2.917001265957e+06 -2.873887788013e+06 -2.897507351647e+06 -2.888711757354e+06 -2.901830874081e+06 -2.885360120098e+06 -2.867530610658e+06 -2.870922373782e+06 -2.859678576720e+06 -2.842171512040e+06 -2.849021783753e+06 -2.834813509804e+06 -2.847521486640e+06 -2.829691977220e+06 -2.862143890171e+06 -2.853489821837e+06 -2.835033213542e+06 -2.845901082387e+06 -2.798535733246e+06 -2.814897969431e+06 -2.810517929563e+06 -2.822603030815e+06 -2.809682853166e+06 -2.791853343577e+06 -2.798688709297e+06 -2.787071797684e+06 -2.768828981710e+06 -2.775294306137e+06 -2.762559395657e+06 -2.771844219530e+06 -2.754014710289e+06 -2.783123587374e+06 -2.778599829160e+06 -2.763090486507e+06 -2.778599721974e+06 -2.743932620631e+06 -2.741758842145e+06 -2.722543694596e+06 -2.744010142857e+06 -2.734603451447e+06 -2.716782482796e+06 -2.726443408530e+06 -2.714096960579e+06 -2.697324860278e+06 -2.702935172295e+06 -2.690356127369e+06 -2.697371223796e+06 -2.679550255285e+06 -2.705877962099e+06 -2.703749210280e+06 -2.682283604028e+06 -2.699371823843e+06 -2.641885588260e+06 -2.662548069766e+06 -2.656113014487e+06 -2.667450475066e+06 -2.660138996564e+06 -2.642318028125e+06 -2.654267044093e+06 -2.643505709047e+06 -2.622342955386e+06 -2.630209995341e+06 -2.618054744381e+06 -2.622906769236e+06 -2.605085800887e+06 -2.629044094169e+06 -2.622175240984e+06 -2.602899269645e+06 -2.615270777315e+06 -2.525093301577e+06 -2.544468567183e+06 -2.536610371998e+06 -2.432820944107e+06 -2.451748941875e+06 -2.437005234131e+06 -2.379213045899e+06 -2.394526837384e+06 -2.394534185642e+06 -2.295864641944e+06 -2.315844782148e+06 -2.318701831031e+06 -2.212821665456e+06 -2.229592554333e+06 -2.225143798671e+06 -2.082863052888e+06 -2.100614623554e+06 -2.086772860129e+06 -2.007136350691e+06 -2.024887921278e+06 -2.014913142152e+06 -1.933393839051e+06 -1.951117851636e+06 -1.943048829319e+06 -1.861580402317e+06 -1.879304414697e+06 -1.871129142015e+06 -1.814071729134e+06 -1.829500712657e+06 -1.826303752115e+06 -1.835199990194e+06 -1.847761776776e+06 -1.864650217564e+06 -1.859172113370e+06 -1.883025682381e+06 -1.900987178838e+06 -1.894864960707e+06 -1.907089065551e+06 -1.919397203606e+06 -1.937364464544e+06 -1.931707951202e+06 -1.955744742505e+06 -1.973076143854e+06 -1.967850389477e+06 -1.978990364024e+06 -1.991417272843e+06 -2.008075865917e+06 -2.002593405310e+06 -2.026408815587e+06 -2.042837492721e+06 -2.036395144140e+06 -2.050830167839e+06 -2.061218940725e+06 -2.078527326435e+06 -2.070851587773e+06 -2.097071630962e+06 -2.118583209398e+06 -2.110357807513e+06 -2.122834115595e+06 -2.136279115145e+06 -2.158480612405e+06 -2.154304558305e+06 -2.176551624700e+06 -2.158636529790e+06 -2.192414357836e+06 -2.192416295353e+06 -2.197044119279e+06 -2.176877529732e+06 -2.196865211522e+06 -2.196238365452e+06 -2.216544928229e+06 -2.236525068553e+06 -2.237505301114e+06 -2.250202696395e+06 -2.269115151359e+06 -2.261405410641e+06 -2.278029267913e+06 -2.289992585858e+06 -2.314155684317e+06 -2.305232081663e+06 -2.334107983925e+06 -2.358913615113e+06 -2.354437340034e+06 -2.359078958322e+06 -2.350568491147e+06 -2.370517823683e+06 -2.365943559682e+06 -2.378885948809e+06 -2.374680674922e+06 -2.383948625213e+06 -2.402607552023e+06 -2.398701702965e+06 -2.413849838787e+06 -2.429805806959e+06 -2.425808304604e+06 -2.449299114761e+06 -2.466787653171e+06 -2.459830562237e+06 -2.475354205058e+06 -2.486426661212e+06 -2.505386473019e+06 -2.497194984104e+06 -2.513745609598e+06 -2.509946189438e+06 -2.528874187174e+06 -2.536882499342e+06 -2.540736262270e+06 -2.552096968266e+06 -2.559771766890e+06 -2.564164318382e+06 -2.583221181241e+06 -2.576055490553e+06 -2.590676340781e+06 -2.585674541922e+06 -2.567585759920e+06 -2.555772163094e+06 -2.544501219813e+06 -2.529197665123e+06 -2.513046276703e+06 -2.517071831553e+06 -2.505676632537e+06 -2.490311564498e+06 -2.471383566801e+06 -2.466968556486e+06 -2.455803154065e+06 -2.436627575882e+06 -2.444747025952e+06 -2.428219065266e+06 -2.413243534969e+06 -2.398320633523e+06 -2.389575449745e+06 -2.377378427249e+06 -2.358185489841e+06 -2.365327580739e+06 -2.350997196864e+06 -2.346588753548e+06 -2.335276835118e+06 -2.312456816635e+06 -2.298916840495e+06 -2.278023875984e+06 -2.284411661392e+06 -2.273630299155e+06 -2.276184925408e+06 -2.256204785147e+06 -2.234785143836e+06 -2.217528241744e+06 -2.196010499197e+06 -2.198132689687e+06 -2.176676242191e+06 -2.161065682453e+06 -2.161064891456e+06 -2.156775939984e+06 -2.156701860215e+06 -2.139004508377e+06 -2.120726404293e+06 -2.116584586673e+06 -2.104313225464e+06 -2.085749628652e+06 -2.093357932632e+06 -2.076830845054e+06 -2.062751272397e+06 -2.044999701875e+06 -2.036930508125e+06 -2.021896073639e+06 -1.997489833693e+06 -2.001925209487e+06 -1.997319547427e+06 -1.987024570077e+06 -1.969300557709e+06 -1.959342293806e+06 -1.944822595720e+06 -1.929732138782e+06 -1.933126242000e+06 -1.923547736963e+06 -1.915211133092e+06 -1.897487120766e+06 -1.887713903656e+06 -1.876778706924e+06 -1.859223755522e+06 -1.866285159660e+06 -1.851847065032e+06 -1.843397696460e+06 -1.825673684157e+06 -1.815969711110e+06 -1.807490978378e+06 -1.804519004186e+06 -1.786829462741e+06 -1.793309365742e+06 -1.780099484093e+06 -1.789766966107e+06 -1.799313701821e+06 -1.795954080196e+06 -1.781095649744e+06 -1.795978178327e+06 -1.713032437469e+06 -1.708381056182e+06 -1.703935749690e+06 -1.691442863459e+06 -1.695401214416e+06 -1.686918849830e+06 -1.698243869653e+06 -1.695560939779e+06 -1.689073345554e+06 -1.659863763720e+06 -1.654952633522e+06 -1.650756183239e+06 -1.609907070957e+06 -1.612103733626e+06 -1.620690071160e+06 -1.623971316862e+06 -1.619090014862e+06 -1.614862893849e+06 -1.588893743249e+06 -1.584781923440e+06 -1.579763583723e+06 -1.575154050796e+06 -1.570959006663e+06 -1.567372027616e+06 -1.562331354417e+06 -1.535544093774e+06 -1.531812266583e+06 -1.526290693327e+06 -1.499490553013e+06 -1.495466181091e+06 -1.490062980399e+06 -1.463274605204e+06 -1.459339292067e+06 -1.454209987511e+06 -1.427417549608e+06 -1.423437401067e+06 -1.418243604163e+06 -1.391623385653e+06 -1.390862827820e+06 -1.385569744821e+06 -1.381218673698e+06 -1.380521935231e+06 -1.380792141710e+06 -1.375696968058e+06 -1.382187328924e+06 -1.380639576691e+06 -1.377002822873e+06 -1.390175294434e+06 -1.386902639811e+06 -1.429058599862e+06 -1.419741999198e+06 -1.424086557040e+06 -1.468705275658e+06 -1.458685804941e+06 -1.463345174381e+06 -1.507347509849e+06 -1.498380199611e+06 -1.502229013382e+06 -1.545200396553e+06 -1.536941167190e+06 -1.539227727140e+06 -1.555350003363e+06 -1.557995674849e+06 -1.565411311623e+06 -1.553247070655e+06 -1.568655497293e+06 -1.563874407624e+06 -1.558656467952e+06 -1.549357883160e+06 -1.546150914888e+06 -1.550927348209e+06 -1.542444983962e+06 -1.540472568709e+06 -1.530209508600e+06 -1.526220633250e+06 -1.520186472832e+06 -1.533688884514e+06 -1.527642582320e+06 -1.517623734933e+06 -1.521772520762e+06 -1.513997763624e+06 -1.510887888117e+06 -1.508545153549e+06 -1.514185820618e+06 -1.505703456466e+06 -1.501978567213e+06 -1.491763520043e+06 -1.488566859131e+06 -1.481716478004e+06 -1.494397880738e+06 -1.489081614755e+06 -1.479084379805e+06 -1.483998247353e+06 -1.474706759870e+06 -1.472417893415e+06 -1.470939392805e+06 -1.477444293648e+06 -1.468961929690e+06 -1.463484566081e+06 -1.453317532132e+06 -1.450913085778e+06 -1.443246483697e+06 -1.455047223143e+06 -1.449387219955e+06 -1.439381770368e+06 -1.444004842641e+06 -1.435356102265e+06 -1.433947898903e+06 -1.433333632593e+06 -1.440702767836e+06 -1.432220404088e+06 -1.424990564758e+06 -1.414871543418e+06 -1.413259311981e+06 -1.404776488005e+06 -1.415736069492e+06 -1.410443414057e+06 -1.400449502186e+06 -1.405481012776e+06 -1.396044948155e+06 -1.395477902945e+06 -1.395727870946e+06 -1.403961242119e+06 -1.395478878105e+06 -1.386214574090e+06 -1.380640036007e+06 -1.380499535629e+06 -1.375508070985e+06 -1.386215549098e+06 -1.395535098894e+06 -1.400280957792e+06 -1.409414899781e+06 -1.405437131318e+06 -1.412998787573e+06 -1.412693073931e+06 -1.422740088339e+06 -1.431462562864e+06 -1.436247336393e+06 -1.445382362178e+06 -1.441442863242e+06 -1.448926251786e+06 -1.449458605798e+06 -1.459529626693e+06 -1.467384060544e+06 -1.472100327778e+06 -1.481233451491e+06 -1.477226587711e+06 -1.484847750640e+06 -1.486224138301e+06 -1.496319166204e+06 -1.503325282517e+06 -1.508328040158e+06 -1.517469122292e+06 -1.513743973648e+06 -1.520788973045e+06 -1.522989672052e+06 -1.533108706626e+06 -1.539256660561e+06 -1.544368700623e+06 -1.553512818705e+06 -1.549895130922e+06 -1.556720351514e+06 -1.559755206344e+06 -1.569898247484e+06 -1.579186511999e+06 -1.583756676544e+06 -1.587668876422e+06 -1.596520741036e+06 -1.592617742134e+06 -1.597726237584e+06 -1.606052136362e+06 -1.601988137421e+06 -1.611035885083e+06 -1.605857039210e+06 -1.615097290921e+06 -1.600697432842e+06 -1.605391119394e+06 -1.596295713696e+06 -1.592382231875e+06 -1.587827878474e+06 -1.578966570516e+06 -1.572938191672e+06 -1.574709896635e+06 -1.582974906550e+06 -1.574882477179e+06 -1.592372345349e+06 -1.592471949155e+06 -1.600840180770e+06 -1.609816010618e+06 -1.614846154760e+06 -1.623707890216e+06 -1.619652071890e+06 -1.623579655361e+06 -1.632431092869e+06 -1.628499576576e+06 -1.632825547954e+06 -1.641902794625e+06 -1.637023346376e+06 -1.646959508141e+06 -1.641766963872e+06 -1.651008070334e+06 -1.636591973848e+06 -1.641271558780e+06 -1.632175725721e+06 -1.627600644849e+06 -1.629457433916e+06 -1.631792109694e+06 -1.638621957913e+06 -1.657973664172e+06 -1.647089793405e+06 -1.651218395742e+06 -1.645532531635e+06 -1.650725739448e+06 -1.659587902235e+06 -1.655547467717e+06 -1.659490434898e+06 -1.668341445117e+06 -1.664423199938e+06 -1.668718837548e+06 -1.680155328143e+06 -1.675105722157e+06 -1.683010703932e+06 -1.677676888782e+06 -1.672486515013e+06 -1.677151998060e+06 -1.668055737642e+06 -1.663577753172e+06 -1.667514568412e+06 -1.671840140956e+06 -1.676622852381e+06 -1.693906488121e+06 -1.685090687847e+06 -1.689128138563e+06 -1.681509640022e+06 -1.686605324114e+06 -1.695467914322e+06 -1.699439899858e+06 -1.703329948977e+06 -1.707611595492e+06 -1.712439473851e+06 -1.738736655599e+06 -1.742603425695e+06 -1.747857900299e+06 -1.774362973645e+06 -1.778014206542e+06 -1.783490306895e+06 -1.810329638056e+06 -1.814074263926e+06 -1.819454333203e+06 -1.846435275407e+06 -1.850399438598e+06 -1.855553768836e+06 -1.882335860351e+06 -1.886333436276e+06 -1.891453409896e+06 -1.917592837803e+06 -1.921039628799e+06 -1.926725946373e+06 -1.952083926220e+06 -1.954284740732e+06 -1.961252231892e+06 -2.029055858396e+06 -2.031600014556e+06 -2.039235831352e+06 -2.071269365352e+06 -2.075975055218e+06 -2.081388278188e+06 -2.110624256762e+06 -2.114896736735e+06 -2.120755407182e+06 -2.148776524094e+06 -2.151524181174e+06 -2.158950748554e+06 -2.225604394788e+06 -2.226986145897e+06 -2.235537703985e+06 -2.265792173952e+06 -2.268482438948e+06 -2.275688519641e+06 -2.305616514359e+06 -2.309285402349e+06 -2.315485215218e+06 -2.344690619329e+06 -2.348657147751e+06 -2.354550912249e+06 -2.383594829971e+06 -2.387704786853e+06 -2.393451071339e+06 -2.422670184519e+06 -2.427078915649e+06 -2.432517985943e+06 -2.461578704553e+06 -2.466134775461e+06 -2.471422343737e+06 -2.499679629696e+06 -2.503649993152e+06 -2.509539814340e+06 -2.563310703678e+06 -2.557911226313e+06 -2.561609212383e+06 -2.545925307700e+06 -2.540961485489e+06 -2.550109892986e+06 -2.536864826372e+06 -2.539418282507e+06 -2.546765036629e+06 -2.610970203501e+06 -2.613381315413e+06 -2.620196438835e+06 -2.649039267745e+06 -2.653226851689e+06 -2.658215320281e+06 -2.684705611298e+06 -2.688488736109e+06 -2.693893089166e+06 -2.734359708924e+06 -2.733170981638e+06 -2.723931801950e+06 -2.720336814547e+06 -2.723683583801e+06 -2.729536618877e+06 -2.756527781902e+06 -2.759946288963e+06 -2.765725559714e+06 -2.771085824584e+06 -2.774251988693e+06 -2.783503130233e+06 -2.777723648854e+06 -2.819857602465e+06 -2.810694132960e+06 -2.814398152788e+06 -2.855928678540e+06 -2.847050525057e+06 -2.850692297275e+06 -2.891452481950e+06 -2.883104130023e+06 -2.886125294159e+06 -2.926320112073e+06 -2.918580855334e+06 -2.920328408441e+06 -2.909890301929e+06 -2.907350637773e+06 -2.899766357291e+06 -2.867904131837e+06 -2.863211241818e+06 -2.857841012783e+06 -2.828767394299e+06 -2.824507686878e+06 -2.818692038554e+06 -2.777564722634e+06 -2.782402765737e+06 -2.787621714208e+06 -2.800226274117e+06 -2.795452660620e+06 -2.803979089603e+06 -2.805905717926e+06 -2.796975013260e+06 -2.793027080438e+06 -2.790828265454e+06 -2.788088800292e+06 -2.780709964924e+06 -2.801041545247e+06 -2.809338739475e+06 -2.806958476455e+06 -2.812699537790e+06 -2.816230226313e+06 -2.820265719083e+06 -2.826311537587e+06 -2.838040587896e+06 -2.832391465113e+06 -2.840917893934e+06 -2.844619860976e+06 -2.835664836587e+06 -2.832506523849e+06 -2.839127979468e+06 -2.848487713813e+06 -2.844519697254e+06 -2.852240397035e+06 -2.854895729912e+06 -2.858128672297e+06 -2.865001360958e+06 -2.875854901573e+06 -2.869330269164e+06 -2.877856698056e+06 -2.883334003906e+06 -2.874354659875e+06 -2.872047383225e+06 -2.878435315248e+06 -2.890413058273e+06 -2.885941172725e+06 -2.891927380989e+06 -2.893561233494e+06 -2.895991625421e+06 -2.903691184161e+06 -2.932226737019e+06 -2.933854578636e+06 -2.942381007534e+06 -2.931326907836e+06 -2.922048146913e+06 -2.913669215318e+06 -2.906269073447e+06 -2.914795502351e+06 -2.913044483126e+06 -2.911734367143e+06 -2.919573343406e+06 -2.931444074561e+06 -2.929059287351e+06 -2.941456858635e+06 -2.950700118840e+06 -2.950810157603e+06 -2.960163456562e+06 -2.950583699937e+06 -2.951734306612e+06 -2.960260735492e+06 -2.951483529176e+06 -2.943207877529e+06 -2.951734306566e+06 -2.960260735439e+06 -2.951570046130e+06 -2.960433769233e+06 -2.953378128410e+06 -2.953544143355e+06 -2.944851699542e+06 -2.935616197168e+06 -2.937699257071e+06 -2.934015633707e+06 -2.934430671377e+06 -2.924325040520e+06 -2.915527304772e+06 -2.910054426387e+06 -2.900853520346e+06 -2.904161290818e+06 -2.897972892388e+06 -2.897467547530e+06 -2.887337596822e+06 -2.879448802777e+06 -2.874577701092e+06 -2.865393511025e+06 -2.869293028717e+06 -2.861894390259e+06 -2.860504423539e+06 -2.850350153206e+06 -2.843339938609e+06 -2.838524096234e+06 -2.829341441183e+06 -2.833295296866e+06 -2.825785526280e+06 -2.823541299714e+06 -2.813362709542e+06 -2.807215138145e+06 -2.802167704123e+06 -2.792978615995e+06 -2.796704739876e+06 -2.789660725800e+06 -2.786578175568e+06 -2.776375265751e+06 -2.767040285339e+06 -2.762411960337e+06 -2.758513856467e+06 -2.749615051716e+06 -2.753531412182e+06 -2.747083002119e+06 -2.738063047726e+06 -2.741213070777e+06 -2.734969837426e+06 -2.739678213941e+06 -2.730391872871e+06 -2.744830204359e+06 -2.739497084300e+06 -2.749222282631e+06 -2.753073050147e+06 -2.758285189925e+06 -2.767191574890e+06 -2.773220094266e+06 -2.771356665942e+06 -2.763090486298e+06 -2.771184820229e+06 -2.753064851871e+06 -2.752958229590e+06 -2.744001944480e+06 -2.734414123280e+06 -2.729391311572e+06 -2.720500705332e+06 -2.725195511836e+06 -2.721865443900e+06 -2.712950860279e+06 -2.717415425045e+06 -2.710924793607e+06 -2.702419518019e+06 -2.705484294522e+06 -2.698882556220e+06 -2.702998243622e+06 -2.693743460097e+06 -2.707582197994e+06 -2.701728378202e+06 -2.711437797892e+06 -2.715473981759e+06 -2.714579230442e+06 -2.713174784768e+06 -2.704739762743e+06 -2.684792032654e+06 -2.695676855456e+06 -2.693228106131e+06 -2.696281942491e+06 -2.691591047858e+06 -2.682716220477e+06 -2.687979062886e+06 -2.685217031219e+06 -2.676286668918e+06 -2.681328143850e+06 -2.675267135307e+06 -2.666741749151e+06 -2.670255928300e+06 -2.662793472938e+06 -2.666318273583e+06 -2.657095047704e+06 -2.670334191841e+06 -2.663959672366e+06 -2.673653313116e+06 -2.677046494622e+06 -2.674733308407e+06 -2.672001958250e+06 -2.664931323955e+06 -2.645390432741e+06 -2.655868416680e+06 -2.652447852001e+06 -2.657854455551e+06 -2.653790784567e+06 -2.644931736007e+06 -2.650762614512e+06 -2.648568618810e+06 -2.639622477722e+06 -2.645239060615e+06 -2.639454724606e+06 -2.628722867692e+06 -2.632702218009e+06 -2.626581173242e+06 -2.629638303549e+06 -2.620446635116e+06 -2.633086185919e+06 -2.626190966740e+06 -2.635868828688e+06 -2.638640113767e+06 -2.635298954104e+06 -2.631614276492e+06 -2.625523899785e+06 -2.606685920564e+06 -2.616460992389e+06 -2.612778642332e+06 -2.619448074617e+06 -2.615990521304e+06 -2.607147251476e+06 -2.613546165988e+06 -2.611920206256e+06 -2.602958286439e+06 -2.609026760861e+06 -2.602140471850e+06 -2.591221943401e+06 -2.593497842783e+06 -2.590614965599e+06 -2.582088908887e+06 -2.573663206882e+06 -2.573562480021e+06 -2.564107174130e+06 -2.573562107804e+06 -2.555913444177e+06 -2.556084780455e+06 -2.553649627283e+06 -2.559470149112e+06 -2.566026281549e+06 -2.575271793750e+06 -2.576329717443e+06 -2.583798222645e+06 -2.592958333476e+06 -2.595838179839e+06 -2.588422260958e+06 -2.598084344168e+06 -2.600272360362e+06 -2.596617836726e+06 -2.592663538812e+06 -2.586850398721e+06 -2.568123451088e+06 -2.577787491416e+06 -2.573937820207e+06 -2.581080321174e+06 -2.578190257953e+06 -2.569195523092e+06 -2.565229723639e+06 -2.561692987805e+06 -2.556166816286e+06 -2.558051953349e+06 -2.553932632343e+06 -2.548289177128e+06 -2.536546657188e+06 -2.530508416199e+06 -2.534538365158e+06 -2.517910494572e+06 -2.527292757630e+06 -2.519864079416e+06 -2.519300833492e+06 -2.514848351605e+06 -2.509547468469e+06 -2.504682702138e+06 -2.500484561118e+06 -2.490869545544e+06 -2.496159781691e+06 -2.453092516631e+06 -2.461961287035e+06 -2.458292431425e+06 -2.416153119518e+06 -2.424244244897e+06 -2.422059522147e+06 -2.379213046200e+06 -2.387390561445e+06 -2.387221353508e+06 -2.333733575209e+06 -2.339463096408e+06 -2.341433182187e+06 -2.368407669967e+06 -2.374864403140e+06 -2.372850411099e+06 -2.403953586332e+06 -2.411340845350e+06 -2.406186303798e+06 -2.407730656264e+06 -2.400613081351e+06 -2.345204822497e+06 -2.354868678959e+06 -2.349505010286e+06 -2.360829444404e+06 -2.364442627017e+06 -2.356247669817e+06 -2.366217635927e+06 -2.368401231498e+06 -2.372916389913e+06 -2.379262449349e+06 -2.377317116943e+06 -2.381141166009e+06 -2.386008389057e+06 -2.393753985250e+06 -2.400490572601e+06 -2.391427665323e+06 -2.395547192926e+06 -2.392836677501e+06 -2.383027568589e+06 -2.388095329544e+06 -2.376629936196e+06 -2.370474324241e+06 -2.363540422773e+06 -2.353922508129e+06 -2.355686818384e+06 -2.348451426911e+06 -2.343087758042e+06 -2.336769752718e+06 -2.327062075305e+06 -2.324955362912e+06 -2.294771954139e+06 -2.304946902242e+06 -2.306590247488e+06 -2.326799730469e+06 -2.324229200401e+06 -2.316436136464e+06 -2.309127883033e+06 -2.306862188508e+06 -2.294608826582e+06 -2.302322925902e+06 -2.254365340899e+06 -2.263956232110e+06 -2.259922648441e+06 -2.215369190228e+06 -2.223873602045e+06 -2.221454061067e+06 -2.176551913367e+06 -2.184983888090e+06 -2.184807321835e+06 -2.129905182222e+06 -2.127522770853e+06 -2.120720203807e+06 -2.114346278594e+06 -2.112232366849e+06 -2.101323564122e+06 -2.108050156369e+06 -2.065363694627e+06 -2.074141260121e+06 -2.070111916176e+06 -2.029971555734e+06 -2.038302850305e+06 -2.034856348693e+06 -1.994504417486e+06 -2.002952108134e+06 -1.999971188737e+06 -1.958703287561e+06 -1.967492071588e+06 -1.964630163620e+06 -1.922564389753e+06 -1.931675660914e+06 -1.928601203399e+06 -1.886404466177e+06 -1.895512894861e+06 -1.892230207371e+06 -1.850782884780e+06 -1.859347092751e+06 -1.856428589546e+06 -1.815942186346e+06 -1.823765949812e+06 -1.821996583559e+06 -1.781092777868e+06 -1.788999213744e+06 -1.788837432073e+06 -1.771699777629e+06 -1.771697138568e+06 -1.758364494106e+06 -1.767227939052e+06 -1.763233655545e+06 -1.740162149748e+06 -1.735771829597e+06 -1.731311994075e+06 -1.749496738874e+06 -1.744275597520e+06 -1.758740409378e+06 -1.754732409330e+06 -1.767222774075e+06 -1.776072502420e+06 -1.785406986135e+06 -1.780170139089e+06 -1.794244401104e+06 -1.803114067445e+06 -1.799135328720e+06 -1.803145142267e+06 -1.794657305404e+06 -1.790825864932e+06 -1.797487050605e+06 -1.806680008372e+06 -1.804580069861e+06 -1.808300823291e+06 -1.812000076412e+06 -1.821334293786e+06 -1.816076268942e+06 -1.830129941281e+06 -1.839000195933e+06 -1.835042635035e+06 -1.839073626576e+06 -1.830585789623e+06 -1.826712153339e+06 -1.832253786752e+06 -1.841415646000e+06 -1.838214814482e+06 -1.844187111558e+06 -1.847927972476e+06 -1.857261601565e+06 -1.851982398786e+06 -1.866015481730e+06 -1.874886324683e+06 -1.870949941511e+06 -1.875002110892e+06 -1.866514274037e+06 -1.862641305093e+06 -1.867834929613e+06 -1.876987122000e+06 -1.873444081699e+06 -1.880116263426e+06 -1.883855868593e+06 -1.893188909490e+06 -1.887888528825e+06 -1.901901022168e+06 -1.910772453461e+06 -1.906857248271e+06 -1.910930595371e+06 -1.902442758502e+06 -1.898601228627e+06 -1.904000731901e+06 -1.913158643064e+06 -1.909818050262e+06 -1.916076186973e+06 -1.919783764809e+06 -1.929116217452e+06 -1.923794658876e+06 -1.937786562801e+06 -1.946658582277e+06 -1.942764554980e+06 -1.946859079999e+06 -1.938371243047e+06 -1.934560992325e+06 -1.940163497728e+06 -1.949327047852e+06 -1.946186073860e+06 -1.952035950740e+06 -1.955711661164e+06 -1.965043525504e+06 -1.959700789144e+06 -2.016508242979e+06 -2.019653028402e+06 -2.011165191524e+06 -2.012506372217e+06 -2.021352010054e+06 -2.007277586453e+06 -2.002042693592e+06 -1.996543898542e+06 -1.991949525962e+06 -1.987914732780e+06 -1.982544711302e+06 -1.973672103465e+06 -1.978671861770e+06 -1.982787564608e+06 -1.974299727677e+06 -1.970502526995e+06 -1.975979908531e+06 -1.985139983008e+06 -1.981875970515e+06 -1.987977485448e+06 -1.991639557503e+06 -2.001907812802e+06 -2.006425305140e+06 -2.011439945200e+06 -2.020587165750e+06 -2.016868124044e+06 -2.023900263622e+06 -2.028531991200e+06 -2.038827216325e+06 -2.034434219594e+06 -2.051340640956e+06 -2.060159308796e+06 -2.054344624240e+06 -2.056518492008e+06 -2.048030655130e+06 -2.042342330892e+06 -2.046790687218e+06 -2.055922177692e+06 -2.051646290457e+06 -2.059817289310e+06 -2.065424424626e+06 -2.075746619660e+06 -2.072324540602e+06 -2.090174909751e+06 -2.098966607845e+06 -2.092181005384e+06 -2.093383955544e+06 -2.084896118699e+06 -2.078285023189e+06 -2.082629097064e+06 -2.091757690803e+06 -2.087379259020e+06 -2.095759981584e+06 -2.102316858176e+06 -2.112666023150e+06 -2.110214861798e+06 -2.121761582290e+06 -2.130017386845e+06 -2.130249419247e+06 -2.129009178822e+06 -2.138245942592e+06 -2.147260312993e+06 -2.148490914436e+06 -2.157710068161e+06 -2.149222231246e+06 -2.139735825312e+06 -2.150148692736e+06 -2.131821237138e+06 -2.138694446716e+06 -2.149545572621e+06 -2.147298869632e+06 -2.158636264610e+06 -2.167023948224e+06 -2.167124101629e+06 -2.167124366690e+06 -2.166420298614e+06 -2.176610680180e+06 -2.166079426042e+06 -2.227245502055e+06 -2.236998477201e+06 -2.227424529112e+06 -2.216353385236e+06 -2.226503301448e+06 -2.205924914420e+06 -2.206398323171e+06 -2.206013340075e+06 -2.196429908352e+06 -2.187089958014e+06 -2.187281500974e+06 -2.177144100614e+06 -2.187573129138e+06 -2.196875532071e+06 -2.187301583935e+06 -2.187470171172e+06 -2.194557836096e+06 -2.204915302739e+06 -2.202127860453e+06 -2.207181240677e+06 -2.206730787737e+06 -2.216723676373e+06 -2.227931353157e+06 -2.233447550019e+06 -2.243761364610e+06 -2.239428645513e+06 -2.247642422471e+06 -2.246841217111e+06 -2.256821589751e+06 -2.245660681180e+06 -2.255562669718e+06 -2.265725101829e+06 -2.266917874798e+06 -2.277121422275e+06 -2.267547474213e+06 -2.268455320022e+06 -2.273530180140e+06 -2.283831735420e+06 -2.279065035196e+06 -2.288166389337e+06 -2.286951646237e+06 -2.296919503010e+06 -2.285308022090e+06 -2.307670419219e+06 -2.317244367272e+06 -2.328838952453e+06 -2.336710379348e+06 -2.348831608305e+06 -2.346421413746e+06 -2.359078957965e+06 -2.368540270775e+06 -2.368652905839e+06 -2.368652906313e+06 -2.374694179749e+06 -2.382003292752e+06 -2.389638795507e+06 -2.396453468744e+06 -2.406260997794e+06 -2.403725924356e+06 -2.408297722482e+06 -2.409877251700e+06 -2.415206568271e+06 -2.425246425158e+06 -2.422540939112e+06 -2.440604190285e+06 -2.449991482874e+06 -2.442743863465e+06 -2.444026039362e+06 -2.434963132093e+06 -2.427942326743e+06 -2.433307152289e+06 -2.443074407886e+06 -2.439113650855e+06 -2.446601253536e+06 -2.453564229886e+06 -2.463721032770e+06 -2.461106076502e+06 -2.479257342431e+06 -2.488642120260e+06 -2.481303971432e+06 -2.482495617773e+06 -2.473432710374e+06 -2.466291297750e+06 -2.471024194478e+06 -2.480773896351e+06 -2.476191742621e+06 -2.484950224612e+06 -2.492036323058e+06 -2.502195640686e+06 -2.499671213798e+06 -2.511902288907e+06 -2.520965196263e+06 -2.523341629199e+06 -2.529400653328e+06 -2.539226269838e+06 -2.535030226684e+06 -2.542500948674e+06 -2.546411747504e+06 -2.550759144390e+06 -2.544925867210e+06 -2.554154760910e+06 -2.551856648571e+06 -2.542544769477e+06 -2.538567013136e+06 -2.532743179126e+06 -2.531380535505e+06 -2.534814670792e+06 -2.526878438609e+06 -2.518688221683e+06 -2.520888367871e+06 -2.515363181681e+06 -2.507532391100e+06 -2.497790527733e+06 -2.495990083484e+06 -2.489566230165e+06 -2.480570751203e+06 -2.484246614446e+06 -2.476655105569e+06 -2.468884268326e+06 -2.459139890281e+06 -2.457282007427e+06 -2.451390798961e+06 -2.441666393398e+06 -2.445961075658e+06 -2.437905614337e+06 -2.430236145578e+06 -2.420489252829e+06 -2.418532516121e+06 -2.412482047680e+06 -2.402599478849e+06 -2.406746081305e+06 -2.399261998839e+06 -2.393819433881e+06 -2.384012810542e+06 -2.379888900654e+06 -2.373432349702e+06 -2.363699319710e+06 -2.367535197317e+06 -2.360683745913e+06 -2.358506150287e+06 -2.348611503787e+06 -2.341310647949e+06 -2.334527529901e+06 -2.324633622617e+06 -2.328325505084e+06 -2.322143365751e+06 -2.324101271927e+06 -2.314095309508e+06 -2.302770267603e+06 -2.295431767139e+06 -2.284836927078e+06 -2.288238150746e+06 -2.283316848191e+06 -2.284866955694e+06 -2.274873509243e+06 -2.263943750169e+06 -2.255644078224e+06 -2.244686111414e+06 -2.247088522442e+06 -2.244471692887e+06 -2.245632639536e+06 -2.235651708924e+06 -2.225098594755e+06 -2.216164605967e+06 -2.205674810383e+06 -2.206836572372e+06 -2.195943640153e+06 -2.186902788344e+06 -2.186795232661e+06 -2.176676312851e+06 -2.168355563377e+06 -2.168528440613e+06 -2.166733979207e+06 -2.166900058016e+06 -2.156665127698e+06 -2.146817900697e+06 -2.138507167060e+06 -2.130160221947e+06 -2.132546589658e+06 -2.126542625850e+06 -2.118383680534e+06 -2.108371422535e+06 -2.106626547594e+06 -2.100207078646e+06 -2.090793092938e+06 -2.094772026663e+06 -2.086788884244e+06 -2.079603351334e+06 -2.069564123463e+06 -2.066872806015e+06 -2.060681116541e+06 -2.048640646108e+06 -2.053123665510e+06 -2.046888547167e+06 -2.040823022620e+06 -2.030756824820e+06 -2.026972469104e+06 -2.019319753331e+06 -2.007393249120e+06 -2.009781084007e+06 -1.997325853471e+06 -1.988031629201e+06 -1.987921038837e+06 -1.977558275817e+06 -1.969720067483e+06 -1.969881903536e+06 -1.968308237357e+06 -1.964226901993e+06 -1.955126417965e+06 -1.950376350060e+06 -1.942845938889e+06 -1.935193782002e+06 -1.937064455165e+06 -1.932513680489e+06 -1.928340184820e+06 -1.919240289161e+06 -1.914581793268e+06 -1.908245179879e+06 -1.899921245518e+06 -1.903088802947e+06 -1.896679847237e+06 -1.892453467625e+06 -1.883354160243e+06 -1.878747960108e+06 -1.872924079171e+06 -1.864021604504e+06 -1.867768707797e+06 -1.860813008678e+06 -1.856566750645e+06 -1.847468031533e+06 -1.842881121462e+06 -1.837014866457e+06 -1.827922168802e+06 -1.831639121726e+06 -1.824935654608e+06 -1.820680033745e+06 -1.811581902934e+06 -1.807003767570e+06 -1.800928759290e+06 -1.791958142439e+06 -1.795446505686e+06 -1.789065427554e+06 -1.784793317036e+06 -1.775695774528e+06 -1.771133540590e+06 -1.764984824817e+06 -1.756325735875e+06 -1.759711086484e+06 -1.753212976164e+06 -1.748912877256e+06 -1.739815762125e+06 -1.735281089019e+06 -1.731347926612e+06 -1.729357591714e+06 -1.720907309352e+06 -1.724509781004e+06 -1.717371786722e+06 -1.722484908933e+06 -1.727338259370e+06 -1.722829629529e+06 -1.713586813714e+06 -1.718807100385e+06 -1.704251797317e+06 -1.700474395665e+06 -1.707036000072e+06 -1.717786472593e+06 -1.715210960689e+06 -1.726888368798e+06 -1.734822656841e+06 -1.735370733375e+06 -1.744851178576e+06 -1.754485644819e+06 -1.754096865368e+06 -1.763217413072e+06 -1.771602934723e+06 
        </DataArray>
        <DataArray type="Float64" Name="STRESS_ZZ" format="ascii">
          -8.747242284918e+06 -9.031352711886e+06 -9.319870688502e+06 -9.609764910925e+06 -9.899442250174e+06 -1.018838218662e+07 -1.047714963412e+07 -1.076628560011e+07 -1.104771100203e+07 -1.133343534468e+07 -1.161979769270e+07 -1.161269235480e+07 -1.160741290078e+07 -1.160800026838e+07 -1.160849186628e+07 -1.160845221671e+07 -1.160814928580e+07 -1.160779996877e+07 -1.160755678192e+07 -1.160745589417e+07 -1.160740271736e+07 -1.160732393861e+07 -1.160731513470e+07 -1.160764877232e+07 -1.160883599815e+07 -1.161115117762e+07 -1.160664300290e+07 -1.160918784138e+07 -1.131904575447e+07 -1.103057717619e+07 -1.074188986804e+07 -1.045334741176e+07 -1.016477434326e+07 -1.016685870898e+07 -1.042969142021e+07 -1.069313765700e+07 -1.095663432852e+07 -1.122016721775e+07 -1.148353938632e+07 -1.174672989147e+07 -1.201001658022e+07 -1.227392425784e+07 -1.253645067150e+07 -1.279851549948e+07 -1.306347841874e+07 -1.306064263071e+07 -1.305941053108e+07 -1.306028283842e+07 -1.306156863351e+07 -1.306224441107e+07 -1.306257952993e+07 -1.306279147311e+07 -1.306293119735e+07 -1.306296367686e+07 -1.306289993624e+07 -1.306280616768e+07 -1.306274984363e+07 -1.306277388314e+07 -1.306288608519e+07 -1.306306516984e+07 -1.306328398442e+07 -1.306351451087e+07 -1.306370185952e+07 -1.306376251987e+07 -1.306366565457e+07 -1.306351110602e+07 -1.306348832229e+07 -1.306376265838e+07 -1.306435388819e+07 -1.306505597074e+07 -1.306545169591e+07 -1.306511149596e+07 -1.306451059858e+07 -1.305938912375e+07 -1.305295763116e+07 -1.277071384768e+07 -1.250706861956e+07 -1.223507318179e+07 -1.196318862345e+07 -1.169173727424e+07 -1.142029472189e+07 -1.114877907190e+07 -1.087726115880e+07 -1.060581482341e+07 -1.033446915773e+07 -1.006318255618e+07 -9.791752516206e+06 -9.519710866422e+06 -9.247471572587e+06 -8.978473572863e+06 -8.723589016086e+06 -8.732365160783e+06 -8.745870061763e+06 -8.746780737753e+06 -8.746397328051e+06 -8.746259208059e+06 -8.746341750978e+06 -8.746459663557e+06 -8.746540028590e+06 -8.746581439867e+06 -8.746598651779e+06 -8.746604648273e+06 -8.746606488683e+06 -8.746607004553e+06 -8.746607104104e+06 -8.746607084893e+06 -8.746607054424e+06 -8.746606995607e+06 -8.746606805518e+06 -8.746606288131e+06 -8.746604940352e+06 -8.746601426863e+06 -8.746592861289e+06 -8.746574384056e+06 -8.746539826628e+06 -8.746484337456e+06 -8.746409984544e+06 -8.746333130045e+06 -8.746284597323e+06 -8.746292034000e+06 -8.746354528091e+06 -8.746439065658e+06 -8.746507029804e+06 -8.746540516492e+06 -8.746542431519e+06 -8.746521571965e+06 -8.746486109621e+06 -8.746449775574e+06 -8.746439736981e+06 -8.746495641013e+06 -8.746658508113e+06 -8.746955142504e+06 -8.747366218249e+06 -8.747717741384e+06 -8.747413134556e+06 -8.745620569685e+06 -8.742267727088e+06 -1.286810716809e+07 -8.920777028103e+06 -8.898637391252e+06 -1.141997605079e+07 -1.137895450948e+07 -1.136604376144e+07 -8.956844615858e+06 -9.127638309328e+06 -1.264830440626e+07 -1.282389283870e+07 -8.957401291638e+06 -1.138347581878e+07 -9.146874267468e+06 -1.118497382753e+07 -1.113586768667e+07 -1.120771731760e+07 -1.136089351306e+07 -1.114739350911e+07 -1.134984960421e+07 -1.135226408070e+07 -1.135004667194e+07 -1.134822292253e+07 -1.134669112770e+07 -1.134662294508e+07 -1.134944430006e+07 -1.135450533475e+07 -1.135875666774e+07 -1.135895984243e+07 -1.135331524710e+07 -1.134482316082e+07 -1.087023361575e+07 -1.099211870674e+07 -1.057181959786e+07 -1.029580629096e+07 -1.107578493128e+07 -8.982922489064e+06 -8.991569596371e+06 -8.989205013478e+06 -8.984745726462e+06 -8.981113726091e+06 -8.978858875200e+06 -8.977840551355e+06 -8.977696876458e+06 -8.977999112172e+06 -8.978398090645e+06 -8.978698543837e+06 -8.978811364658e+06 -8.978653308620e+06 -8.978128006687e+06 -8.977273424253e+06 -8.976411089574e+06 -8.975997424324e+06 -8.976246646301e+06 -8.976971213987e+06 -8.977805067012e+06 -8.978489098705e+06 -8.978945333577e+06 -8.979204421674e+06 -8.979331197007e+06 -8.979385362796e+06 -8.979406493180e+06 -8.979414641087e+06 -8.979417763318e+06 -8.979418717787e+06 -8.979418957576e+06 -8.979419293818e+06 -8.979419397830e+06 -8.979417526893e+06 -8.979409318014e+06 -8.979380761585e+06 -8.979290829647e+06 -8.979046436817e+06 -8.978494479137e+06 -8.977502727946e+06 -8.976202645447e+06 -8.975824425760e+06 -8.978813708743e+06 -8.983957833769e+06 -9.392315397151e+06 -9.665920482204e+06 -9.938040890807e+06 -1.020713800063e+07 -1.047637898118e+07 -1.074662786278e+07 -1.101785218764e+07 -1.128952175944e+07 -1.156071855013e+07 -1.183090849895e+07 -1.210206066963e+07 -1.238086188270e+07 -1.280898025467e+07 -1.281147995765e+07 -1.281183284391e+07 -1.280912055804e+07 -1.280678034558e+07 -1.280674603669e+07 -1.280851281925e+07 -1.281046754109e+07 -1.281159575133e+07 -1.281186998319e+07 -1.281168979847e+07 -1.281139671720e+07 -1.281115805184e+07 -1.281102802764e+07 -1.281100683643e+07 -1.281106671905e+07 -1.281116588284e+07 -1.281125648151e+07 -1.281128926877e+07 -1.281126920655e+07 -1.281136380408e+07 -1.281160555388e+07 -1.281075571457e+07 -1.280546328800e+07 -1.279229770202e+07 -1.277469710236e+07 -1.277904540260e+07 -1.246780575999e+07 -1.213285423187e+07 -1.187248350237e+07 -1.163397574598e+07 -1.138590099452e+07 -1.112106605337e+07 -1.084877997758e+07 -1.058689843814e+07 -1.032445468708e+07 -1.252897672659e+07 -1.222897275890e+07 -1.196511212710e+07 -1.176376635816e+07 -1.256495817207e+07 -1.258004602949e+07 -1.258124501558e+07 -1.157055540789e+07 -1.257958421381e+07 -1.257923449674e+07 -1.257955693144e+07 -1.257953766257e+07 -1.257920626714e+07 -1.257880980831e+07 -1.257848809634e+07 -1.257832596654e+07 -1.257839214226e+07 -1.257872572194e+07 -1.257929431303e+07 -1.257990094379e+07 -1.257999896881e+07 -1.257855056208e+07 -1.257457372784e+07 -1.256883448811e+07 -1.256525871004e+07 -1.256825957907e+07 -1.257689257768e+07 -1.258341015756e+07 -1.257601656229e+07 -1.254236925470e+07 -9.434455651924e+06 -9.744236581771e+06 -1.004771779979e+07 -1.033823677206e+07 -1.062650506093e+07 -1.090627939440e+07 -9.221174091034e+06 -9.244858381284e+06 -9.238673631052e+06 -9.227593826316e+06 -9.218616294365e+06 -9.212607932755e+06 -9.209288234463e+06 -9.208168776123e+06 -9.208470754469e+06 -9.209334895199e+06 -9.210151025640e+06 -9.210603770657e+06 -9.210487198996e+06 -9.209516445642e+06 -9.207480671648e+06 -9.204831220882e+06 -9.202855848905e+06 -9.202709333398e+06 -9.204342153967e+06 -9.206723090034e+06 -9.208881161575e+06 -9.210423525564e+06 -9.211361178092e+06 -9.211853492942e+06 -9.212079610742e+06 -9.212174186360e+06 -9.212212672797e+06 -9.212227935592e+06 -9.212232476216e+06 -9.212232425334e+06 -9.212232120395e+06 -9.212233379532e+06 -9.212234409597e+06 -9.212228639687e+06 -9.212195952851e+06 -9.212083514932e+06 -9.211785416837e+06 -9.211112707420e+06 -9.209765583754e+06 -9.207503510820e+06 -9.204387568594e+06 -9.204476067499e+06 -9.216976766409e+06 -1.111186200808e+07 -1.086750726017e+07 -1.111828278193e+07 -1.113802597391e+07 -1.114215500812e+07 -1.113507629766e+07 -1.112235528498e+07 -1.111240594252e+07 -1.111062129847e+07 -1.111363994715e+07 -1.111710817408e+07 -1.112009762349e+07 -1.110987731017e+07 -1.086193386870e+07 -9.245558655562e+06 -9.540893010876e+06 -9.455019809783e+06 -9.419447569024e+06 -9.814798719144e+06 -1.007950776704e+07 -1.034493816148e+07 -9.708087747901e+06 -9.634121602044e+06 -1.061300879632e+07 -9.958177796335e+06 -1.021528595872e+07 -1.047971999097e+07 -9.847536138952e+06 -1.088354119594e+07 -1.074887949353e+07 -1.115580571662e+07 -1.142811395179e+07 -1.169783080959e+07 -1.196012340667e+07 -1.222928369755e+07 -1.231847407510e+07 -1.207558655454e+07 -1.234883458893e+07 -1.216973919689e+07 -1.182800170017e+07 -1.196525707502e+07 -1.102178104380e+07 -1.129694554479e+07 -1.157038618652e+07 -1.171238618075e+07 -9.420402966857e+06 -9.615139617828e+06 -9.766051675852e+06 -9.436801215216e+06 -9.440428657456e+06 -9.442801328737e+06 -9.443994026542e+06 -9.444651619649e+06 -9.444963012803e+06 -9.445054444475e+06 -9.445063032425e+06 -9.445059633412e+06 -9.445059266414e+06 -9.445063294458e+06 -9.445070270336e+06 -9.445072177959e+06 -9.445055394384e+06 -9.445001491682e+06 -9.444874081153e+06 -9.444580332310e+06 -9.443912347521e+06 -9.442518768745e+06 -9.439983494641e+06 -9.436007107394e+06 -9.430664525485e+06 -9.425250396124e+06 -9.422699833637e+06 -9.425212659575e+06 -9.431331887984e+06 -9.437209414338e+06 -9.440589160634e+06 -9.441779967052e+06 -9.441621745966e+06 -9.440541010967e+06 -9.438933618707e+06 -9.437566909602e+06 -9.437793939627e+06 -9.441161482849e+06 -9.448382136352e+06 -9.459736709638e+06 -9.477059934915e+06 -1.233470298027e+07 -1.212984392552e+07 -1.231048426365e+07 -1.229542288238e+07 -1.229928044960e+07 -1.231304970706e+07 -1.232375371000e+07 -1.232804482145e+07 -1.232825698238e+07 -1.232712942310e+07 -1.232595177880e+07 -1.232516855736e+07 -1.232487938036e+07 -1.232503839664e+07 -1.232555655512e+07 -1.232635622494e+07 -1.232733057873e+07 -1.232807022063e+07 -1.232747303529e+07 -1.232540422384e+07 -1.232745616754e+07 -1.233631817276e+07 -1.233854614184e+07 -1.229871217078e+07 -1.187682900919e+07 -9.680536729304e+06 -9.781518563682e+06 -9.503310829983e+06 -9.550936403060e+06 -9.908186469940e+06 -9.803029867742e+06 -9.750921481998e+06 -1.020160353811e+07 -1.048102230481e+07 -1.076227077533e+07 -1.085921244232e+07 -1.090772001092e+07 -1.059984646677e+07 -1.068783619607e+07 -1.034576104436e+07 -1.008283221842e+07 -1.047450575650e+07 -1.024997434021e+07 -1.000655036522e+07 -9.722994953142e+06 -9.965401321889e+06 -9.706550332883e+06 -9.951775274409e+06 -9.694330184282e+06 -9.686554198115e+06 -9.939546835264e+06 -9.921477614561e+06 -1.092301331946e+07 -1.072186607613e+07 -1.056075983237e+07 -1.039482994949e+07 -1.019218615837e+07 -1.091562524216e+07 -1.089374966074e+07 -1.086481121115e+07 -1.085506300663e+07 -1.086240373721e+07 -1.086890818250e+07 -1.087331044599e+07 -1.086869072746e+07 -9.684907604745e+06 -9.916268262910e+06 -9.686860693648e+06 -9.689635517944e+06 -9.691741593878e+06 -9.692499825391e+06 -9.691487524144e+06 -9.687886454144e+06 -9.678634343297e+06 -9.663866704983e+06 -9.652803232193e+06 -9.653997886933e+06 -9.664900954566e+06 -9.676825628282e+06 -9.685650678550e+06 -9.691557071586e+06 -9.694949604524e+06 -9.696617475227e+06 -9.697377758312e+06 -9.697737152251e+06 -9.697909983882e+06 -9.697974966939e+06 -9.697975866693e+06 -9.697950101363e+06 -9.697921803390e+06 -9.697895474447e+06 -9.697878210943e+06 -9.697901970364e+06 -9.697940517167e+06 -9.697733727845e+06 -9.696953287205e+06 -9.695789134169e+06 -9.694350917274e+06 -9.689880744835e+06 -9.919526692758e+06 -1.072146753262e+07 -1.054437885260e+07 -1.036428665294e+07 -1.017070524445e+07 -1.020481011097e+07 -1.015685252916e+07 -1.013958110142e+07 -1.014874154618e+07 -9.924417875206e+06 -9.928185969124e+06 -9.929771974786e+06 -9.928989870671e+06 -9.925835837914e+06 -9.920285942478e+06 -9.896266741489e+06 -9.856437161768e+06 -9.845061660365e+06 -9.870621116675e+06 -9.897305882398e+06 -9.913567049135e+06 -9.925144485028e+06 -9.932032714436e+06 -9.935269858127e+06 -9.936644810433e+06 -9.937326111681e+06 -9.937708220129e+06 -9.937879908220e+06 -9.937897726411e+06 -9.937834201718e+06 -9.937746447819e+06 -9.937643781117e+06 -9.937514347768e+06 -9.937437045950e+06 -9.937607485932e+06 -9.937920025164e+06 -9.937322410139e+06 -9.935175118518e+06 -9.934024822912e+06 -9.935797882418e+06 -1.052755171269e+07 -1.034358445613e+07 -1.015812307308e+07 -1.008531923460e+07 -1.034186619263e+07 -1.060907223177e+07 -1.088151093022e+07 -9.950011778402e+06 -1.115939212326e+07 -1.144058181400e+07 -1.159371300178e+07 -1.069983011833e+07 -1.047353842956e+07 -1.040459122340e+07 -1.032978445129e+07 -1.037185897971e+07 -1.065636539890e+07 -1.058642704938e+07 -1.061329104569e+07 -1.038453065581e+07 -1.061976510190e+07 -1.039457628315e+07 -1.016451389474e+07 -1.062683905614e+07 -1.063011528096e+07 -1.039323335388e+07 -1.016095288978e+07 -1.063578209863e+07 -1.039433530305e+07 -1.016722443831e+07 -1.016298157022e+07 -1.040336104008e+07 -1.063236394115e+07 -1.039059498444e+07 -1.015716790537e+07 -1.015311401383e+07 -1.006326956359e+07 -1.001156638762e+07 -1.002201075779e+07 -1.010464087885e+07 -1.013614463332e+07 -1.015632570916e+07 -1.016952678766e+07 -1.017493543834e+07 -1.017654472294e+07 -1.017737383500e+07 -1.017803959667e+07 -1.017842137877e+07 -1.017849900715e+07 -1.017838234681e+07 -1.017818970435e+07 -1.017795671204e+07 -1.017761608991e+07 -1.017714466514e+07 -1.017694678942e+07 -1.017784257735e+07 -1.017936461690e+07 -1.017679971053e+07 -1.016969776900e+07 -1.017254780769e+07 -1.036491765658e+07 -1.059877883122e+07 -1.073964499936e+07 -1.052301691812e+07 -1.037447513388e+07 -1.014344896805e+07 -1.034866936878e+07 -1.051793165131e+07 -1.074451713079e+07 -1.103111850031e+07 -1.131898627619e+07 -1.038246474881e+07 -1.059000739000e+07 -1.040989892380e+07 -1.041204882992e+07 -1.041161395734e+07 -1.041142855362e+07 -1.041239436463e+07 -1.041320557525e+07 -1.041345422965e+07 -1.041329813641e+07 -1.041296358645e+07 -1.041256675200e+07 -1.041202739562e+07 -1.041108792770e+07 -1.040968268734e+07 -1.040928876159e+07 -1.041294084131e+07 -1.041931939549e+07 -1.040704365451e+07 -1.038226239770e+07 -1.207820934085e+07 -1.178610284657e+07 -1.202903556479e+07 -1.202146476431e+07 -1.205354011611e+07 -1.208038075322e+07 -1.209085336176e+07 -1.209077356675e+07 -1.208830913630e+07 -1.208603149823e+07 -1.208446801083e+07 -1.208372054672e+07 -1.208368614623e+07 -1.208423867318e+07 -1.208531740349e+07 -1.208696762152e+07 -1.208916047532e+07 -1.209082791464e+07 -1.208697863439e+07 -1.207622737355e+07 -1.208954481637e+07 -1.212923434876e+07 -1.214919892192e+07 -1.202510974661e+07 -1.177999371422e+07 -9.917378041146e+06 -9.885269100259e+06 -1.019840741789e+07 -1.040074549066e+07 -1.154269984326e+07 -1.178083310776e+07 -1.196564470839e+07 -1.189432820789e+07 -1.175776843305e+07 -1.154210850065e+07 -1.168572173163e+07 -1.176782263779e+07 -1.183493649285e+07 -1.186227172396e+07 -1.185664150474e+07 -1.184981921912e+07 -1.184570019901e+07 -1.184284283481e+07 -1.184150571564e+07 -1.184793791340e+07 -1.184157186126e+07 -1.184264421456e+07 -1.184463682379e+07 -1.184782784582e+07 -1.185309557945e+07 -1.185944159529e+07 -1.184506327118e+07 -1.179150358130e+07 -1.162911314015e+07 -1.065524075202e+07 -1.087896855934e+07 -1.130349473941e+07 -1.147141277493e+07 -1.101481622785e+07 -1.073781000926e+07 -1.047433267501e+07 -1.021074392318e+07 -1.008401095860e+07 -1.035371570476e+07 -1.048774190267e+07 -1.061205353974e+07 -1.087436916142e+07 -1.073122232058e+07 -1.061359410707e+07 -1.054012033541e+07 -1.059518577648e+07 -1.115831909132e+07 -1.098592101592e+07 -1.083871913004e+07 -1.072566772574e+07 -1.068034366040e+07 -1.064577917408e+07 -1.063215395243e+07 -1.063332513123e+07 -1.063776781235e+07 -1.064002275985e+07 -1.064109490543e+07 -1.064176338995e+07 -1.064235736777e+07 -1.064286892090e+07 -1.064304956011e+07 -1.064242956276e+07 -1.064050366265e+07 -1.063889372381e+07 -1.064447792213e+07 -1.066413951020e+07 -1.127736774133e+07 -1.104135426668e+07 -1.093890104239e+07 -1.145060364303e+07 -1.116669451104e+07 -1.157162377180e+07 -1.166996985692e+07 -1.163739591783e+07 -1.082680895434e+07 -1.103848172320e+07 -1.126101107030e+07 -1.144416609222e+07 -1.097990380356e+07 -1.090297354396e+07 -1.117015594539e+07 -1.085826206882e+07 -1.108461993952e+07 -1.086507823160e+07 -1.103398861714e+07 -1.088446331151e+07 -1.088912348345e+07 -1.089084500074e+07 -1.089172017148e+07 -1.089247982227e+07 -1.089332795259e+07 -1.089418262746e+07 -1.089465827447e+07 -1.089353999685e+07 -1.088753730392e+07 -1.088077204085e+07 -1.090736957763e+07 -1.098242598950e+07 -1.123444638045e+07 -1.134156258623e+07 -1.119347500660e+07 -1.109162362965e+07 -1.112351110515e+07 -1.114887859016e+07 -1.114919500387e+07 -1.114720887818e+07 -1.114546087682e+07 -1.114414844773e+07 -1.114322712843e+07 -1.114256793136e+07 -1.114189302855e+07 -1.114054078322e+07 -1.113466409391e+07 -1.136019116888e+07 -1.119855561140e+07 -1.161006684301e+07 -1.137375557610e+07 -1.160514752724e+07 -1.136241564413e+07 -1.160017029579e+07 -1.136718339895e+07 -1.137364665964e+07 -1.137387908452e+07 -1.160499294863e+07 -1.161119117419e+07 -1.136780808495e+07 -1.161143171498e+07 -1.159872434640e+07 -1.160722924274e+07 -1.136900189464e+07 -1.137114902163e+07 -1.160341213056e+07 -1.161602676845e+07 -1.137462168824e+07 -1.138193247003e+07 -1.162180985916e+07 -1.166240076959e+07 -1.139556616681e+07 -1.130474553479e+07 -1.157635083654e+07 -1.146465990407e+07 -1.191986277989e+07 -1.219928359619e+07 -1.248937829977e+07 -1.278080927367e+07 -1.307162249062e+07 -1.336186149156e+07 -1.365201049593e+07 -1.394124346263e+07 -1.422661194174e+07 -1.451335551157e+07 -1.450659278880e+07 -1.450084582256e+07 -1.449302883134e+07 -1.449307346488e+07 -1.449378057739e+07 -1.449416329404e+07 -1.449421276523e+07 -1.449412699894e+07 -1.449378355858e+07 -1.449340814397e+07 -1.449365172186e+07 -1.449481624021e+07 -1.449740848484e+07 -1.450024603232e+07 -1.450254080242e+07 -1.423776509683e+07 -1.397487386700e+07 -1.371186161688e+07 -1.344881081050e+07 -1.318578613531e+07 -1.292282545708e+07 -1.265990725380e+07 -1.239691220589e+07 -1.213349563172e+07 -1.187231788054e+07 -1.180911600314e+07 -1.431553715772e+07 -1.428607617288e+07 -1.184498494531e+07 -1.426317853965e+07 -1.406093909264e+07 -1.408741176274e+07 -1.203048314213e+07 -1.428508004860e+07 -1.412127688335e+07 -1.381692822695e+07 -1.391804162511e+07 -1.355282136133e+07 -1.328281551255e+07 -1.301672568690e+07 -1.276042515691e+07 -1.251071352590e+07 -1.225038270991e+07 -1.193416541190e+07 -1.425490460538e+07 -1.405598599653e+07 -1.424187140532e+07 -1.423577996753e+07 -1.423902532652e+07 -1.424328787185e+07 -1.424737258321e+07 -1.425073703759e+07 -1.424978684212e+07 -1.423775356044e+07 -1.421525675724e+07 -1.421795333963e+07 -1.186310389620e+07 -1.187133431886e+07 -1.186848900023e+07 -1.186391192638e+07 -1.186080079736e+07 -1.185959949061e+07 -1.185950242901e+07 -1.185885045573e+07 -1.185622218170e+07 -1.185260192653e+07 -1.185157776224e+07 -1.185803488059e+07 -1.188014021808e+07 -1.213707594943e+07 -1.238046044616e+07 -1.208147385298e+07 -1.230516365237e+07 -1.206539431684e+07 -1.228225925276e+07 -1.260288111478e+07 -1.248486205148e+07 -1.248229914049e+07 -1.206540567745e+07 -1.228000998840e+07 -1.248004341344e+07 -1.207396713733e+07 -1.208236068078e+07 -1.208450889838e+07 -1.208326927510e+07 -1.208358481929e+07 -1.208777332736e+07 -1.209663596272e+07 -1.210880290181e+07 -1.229330789514e+07 -1.249329098734e+07 -1.283588119160e+07 -1.266261624670e+07 -1.267051795030e+07 -1.267303062862e+07 -1.309787912505e+07 -1.337895128004e+07 -1.366121017641e+07 -1.379219250620e+07 -1.231762050904e+07 -1.232661731921e+07 -1.232021713270e+07 -1.231634503736e+07 -1.231856446562e+07 -1.232893294257e+07 -1.234870339608e+07 -1.212442693267e+07 -1.239246459902e+07 -1.209625699777e+07 -1.252824801918e+07 -1.269949274764e+07 -1.399226282304e+07 -1.381393487816e+07 -1.352470494118e+07 -1.322663800185e+07 -1.292806331408e+07 -1.261880688616e+07 -1.230720607423e+07 -1.259190818546e+07 -1.256055295261e+07 -1.254715315649e+07 -1.254277240480e+07 -1.255027717702e+07 -1.257093686659e+07 -1.261455700116e+07 -1.390691333971e+07 -1.398909342321e+07 -1.402954862033e+07 -1.403262592561e+07 -1.402467183580e+07 -1.401541796849e+07 -1.400817486126e+07 -1.399799524366e+07 -1.398832038645e+07 -1.400033031700e+07 -1.369663897343e+07 -1.339582978902e+07 -1.309581515295e+07 -1.279101054358e+07 -1.243459948017e+07 -1.268950013898e+07 -1.297906958783e+07 -1.326218705582e+07 -1.355721323185e+07 -1.367684688823e+07 -1.382641374002e+07 -1.381471541557e+07 -1.379907066966e+07 -1.376897396796e+07 -1.375782982430e+07 -1.375265229671e+07 -1.372301258475e+07 -1.366722014029e+07 -1.289486106379e+07 -1.282577103802e+07 -1.285974258488e+07 -1.318571491308e+07 -1.301240898823e+07 -1.349220122277e+07 -1.326988660661e+07 -1.302845595589e+07 -1.289513562733e+07 -1.274907071382e+07 -1.341626655385e+07 -1.312027147712e+07 -1.293304732981e+07 -1.350342546072e+07 -1.284981115836e+07 -1.280002875528e+07 -1.352229869665e+07 -1.277928898604e+07 -1.348464168619e+07 -1.276091960857e+07 -1.276655306485e+07 -1.278348801136e+07 -1.281650199778e+07 -1.287982389288e+07 -1.313521268630e+07 -1.338288048542e+07 -1.305563232260e+07 -1.324470597501e+07 -1.343103250731e+07 -1.362791387136e+07 -1.301617485729e+07 -1.298972901310e+07 -1.296474036966e+07 -1.322569335628e+07 -1.320033534416e+07 -1.317026788232e+07 -1.341348466567e+07 -1.338388396774e+07 -1.360324390776e+07 -1.355564966213e+07 -1.332476349793e+07 -1.312561780827e+07 -1.320522084029e+07 -1.329989027340e+07 -1.336064237912e+07 -1.326969586967e+07 -1.305280508616e+07 -1.298488651455e+07 -1.316810937423e+07 -1.302665052702e+07 -1.296514574013e+07 -1.479430197818e+07 -1.508417819189e+07 -1.537653067046e+07 -1.567006761945e+07 -1.596397261279e+07 -1.624797895382e+07 -1.653023632444e+07 -1.681473794767e+07 -1.709826313272e+07 -1.738181805933e+07 -1.766554852199e+07 -1.794973074712e+07 -1.823388160170e+07 -1.851800719114e+07 -1.880040689855e+07 -1.906627250783e+07 -1.932925432464e+07 -1.959444318206e+07 -1.985918024616e+07 -2.012391070229e+07 -2.038874641343e+07 -2.065363098852e+07 -2.091849901492e+07 -2.118330860864e+07 -2.144800687485e+07 -2.170921318016e+07 -2.170822203348e+07 -2.142337097099e+07 -2.113506423012e+07 -2.084429405680e+07 -2.055405967423e+07 -2.026209573857e+07 -1.998093824078e+07 -1.970152545599e+07 -1.941988304971e+07 -1.913831803229e+07 -1.885608408604e+07 -1.857574597884e+07 -1.829614846683e+07 -1.801463836389e+07 -1.773282520999e+07 -1.745045056037e+07 -1.715364971608e+07 -1.685760477751e+07 -1.655979426501e+07 -1.626252860492e+07 -1.596366244671e+07 -1.569993123262e+07 -1.543784952038e+07 -1.517381379997e+07 -1.491021281043e+07 -1.464670593254e+07 -1.438317796268e+07 -1.411958121900e+07 -1.385591763487e+07 -1.359225346452e+07 -1.332870212337e+07 -1.731941703036e+07 -1.868805040998e+07 -1.751085206889e+07 -1.596318572514e+07 -1.595865622063e+07 -1.596118994674e+07 -1.596257573859e+07 -1.596266351101e+07 -1.596234801370e+07 -1.596213407897e+07 -1.596199923070e+07 -1.596193353292e+07 -1.596189713266e+07 -1.596185963116e+07 -1.596181077330e+07 -1.596175952022e+07 -1.596172335454e+07 -1.596171452708e+07 -1.596173213853e+07 -1.596176540789e+07 -1.596180067707e+07 -1.596182623603e+07 -1.596183672776e+07 -1.596183537486e+07 -1.596182468668e+07 -1.596178969846e+07 -1.596169952959e+07 -1.596157796590e+07 -1.596196115861e+07 -1.596123917017e+07 -1.596066525414e+07 -1.596174360671e+07 -1.595678657433e+07 -1.594967160172e+07 -1.564910043995e+07 -1.535954246566e+07 -1.506858356974e+07 -1.477787322172e+07 -1.448791632293e+07 -1.419789795609e+07 -1.390760319975e+07 -1.362449234986e+07 -1.333876476989e+07 -1.575918787767e+07 -1.324734305380e+07 -1.328067239305e+07 -1.329492211270e+07 -1.572181151205e+07 -1.553107871645e+07 -1.351092111841e+07 -1.347304851010e+07 -1.328222102321e+07 -1.345202756418e+07 -1.376215416569e+07 -1.366851961180e+07 -1.403228236993e+07 -1.430235364105e+07 -1.456223751451e+07 -1.481158712222e+07 -1.505745109288e+07 -1.531655071404e+07 -1.563349051525e+07 -1.330721862743e+07 -1.352014738576e+07 -1.331115066190e+07 -1.331377517399e+07 -1.331488567379e+07 -1.331699919362e+07 -1.331941745262e+07 -1.332007525703e+07 -1.331820022159e+07 -1.331497638994e+07 -1.331191498608e+07 -1.331008777574e+07 -1.331002000862e+07 -1.331146976283e+07 -1.331382786126e+07 -1.331661860100e+07 -1.331930305540e+07 -1.332061675324e+07 -1.331914379800e+07 -1.331562911634e+07 -1.331330478581e+07 -1.331524870228e+07 -1.332235019708e+07 -1.333255070594e+07 -1.334146361691e+07 -1.334298711907e+07 -1.332992093526e+07 -1.355667690945e+07 -1.570179500850e+07 -1.569172307423e+07 -1.569359464404e+07 -1.569809520107e+07 -1.570168519731e+07 -1.570355367179e+07 -1.570405678809e+07 -1.570393308636e+07 -1.570371880106e+07 -1.570346180013e+07 -1.570298783356e+07 -1.570227736955e+07 -1.570149388059e+07 -1.570087383246e+07 -1.570066448694e+07 -1.570100291822e+07 -1.570175553440e+07 -1.570253175225e+07 -1.570292334907e+07 -1.570277879883e+07 -1.570236110619e+07 -1.570229591543e+07 -1.570345912413e+07 -1.570622761776e+07 -1.570851092507e+07 -1.570474425484e+07 -1.568532051938e+07 -1.542690263042e+07 -1.518463052389e+07 -1.547751602852e+07 -1.525358718668e+07 -1.548708819916e+07 -1.496649662401e+07 -1.507791006137e+07 -1.526601510652e+07 -1.506972635785e+07 -1.548133787490e+07 -1.525458401092e+07 -1.547295482721e+07 -1.523015295074e+07 -1.546941209697e+07 -1.546964217847e+07 -1.547094008077e+07 -1.547186324242e+07 -1.547144900822e+07 -1.546977636323e+07 -1.546769318329e+07 -1.546632620342e+07 -1.546634748339e+07 -1.546758966467e+07 -1.546943423056e+07 -1.547128287240e+07 -1.547263134197e+07 -1.547319291985e+07 -1.547338131603e+07 -1.547383210692e+07 -1.547391005475e+07 -1.547186198966e+07 -1.546620917889e+07 -1.545668616420e+07 -1.544552007117e+07 -1.521940537983e+07 -1.522160178641e+07 -1.522456656521e+07 -1.522783581280e+07 -1.522833491651e+07 -1.522576552150e+07 -1.522137933263e+07 -1.521748274228e+07 -1.521636535746e+07 -1.521830781230e+07 -1.522183281133e+07 -1.522559529541e+07 -1.522870301296e+07 -1.523018126475e+07 -1.522953603787e+07 -1.522927744825e+07 -1.523085113334e+07 -1.523073581632e+07 -1.522546991717e+07 -1.521304218096e+07 -1.519289894585e+07 -1.505038233945e+07 -1.473933045562e+07 -1.490507432021e+07 -1.487177184507e+07 -1.449217952241e+07 -1.422791220438e+07 -1.394598691851e+07 -1.382014177296e+07 -1.543277786926e+07 -1.515877436769e+07 -1.500482457840e+07 -1.482198368224e+07 -1.494118502118e+07 -1.496653529499e+07 -1.496684459242e+07 -1.497733677784e+07 -1.498154506456e+07 -1.497881931098e+07 -1.497134217292e+07 -1.496203969737e+07 -1.495647536065e+07 -1.495873531989e+07 -1.496539134468e+07 -1.497224919253e+07 -1.497834848325e+07 -1.498260486530e+07 -1.498250867587e+07 -1.497597365952e+07 -1.497740907096e+07 -1.498419289243e+07 -1.498248138170e+07 -1.497269672711e+07 -1.494902975039e+07 -1.491200625517e+07 -1.545985141812e+07 -1.468994324001e+07 -1.469167743855e+07 -1.446163101991e+07 -1.524021652167e+07 -1.492680537294e+07 -1.462035320357e+07 -1.432706771291e+07 -1.403128067035e+07 -1.374533704470e+07 -1.359978793821e+07 -1.360318806074e+07 -1.358615063906e+07 -1.356280224517e+07 -1.354244809273e+07 -1.353319820957e+07 -1.353562111905e+07 -1.354506747963e+07 -1.355234540978e+07 -1.355158375513e+07 -1.354611693458e+07 -1.354018333356e+07 -1.353474764522e+07 -1.353028900252e+07 -1.352821056402e+07 -1.353018373502e+07 -1.353597342255e+07 -1.354358541342e+07 -1.355069116642e+07 -1.355277294328e+07 -1.354791431443e+07 -1.354166787383e+07 -1.353919050002e+07 -1.353989459016e+07 -1.355042574924e+07 -1.511486340617e+07 -1.485926647307e+07 -1.475609611499e+07 -1.445211836787e+07 -1.455268349787e+07 -1.417145840207e+07 -1.429360124596e+07 -1.386578610539e+07 -1.407495027961e+07 -1.390298634665e+07 -1.387397444846e+07 -1.383575376497e+07 -1.378834851048e+07 -1.376082579702e+07 -1.375760815219e+07 -1.377382574544e+07 -1.379910981843e+07 -1.380488697002e+07 -1.379344944205e+07 -1.378289015924e+07 -1.377352049176e+07 -1.376460348563e+07 -1.375679499213e+07 -1.375506554988e+07 -1.376283191676e+07 -1.377605662631e+07 -1.379081728111e+07 -1.380559079097e+07 -1.380095149848e+07 -1.378376315226e+07 -1.377468413007e+07 -1.377694357486e+07 -1.379604279702e+07 -1.462163714099e+07 -1.467337250788e+07 -1.471842081470e+07 -1.436464100677e+07 -1.416023537696e+07 -1.414501556392e+07 -1.473344269382e+07 -1.473305755567e+07 -1.473338540392e+07 -1.469581205066e+07 -1.472931600728e+07 -1.473496065930e+07 -1.472896927350e+07 -1.472001510177e+07 -1.471637096774e+07 -1.469762716587e+07 -1.468338527028e+07 -1.468602721288e+07 -1.470522400264e+07 -1.472119044797e+07 -1.473208043703e+07 -1.473289900080e+07 -1.471785086487e+07 -1.469025148963e+07 -1.440073836266e+07 -1.446633028603e+07 -1.454391010884e+07 -1.447879761767e+07 -1.415269407069e+07 -1.404742737964e+07 -1.431928122590e+07 -1.398143548859e+07 -1.420877234744e+07 -1.396083780771e+07 -1.412593773201e+07 -1.430565042302e+07 -1.451699621110e+07 -1.397921119300e+07 -1.415178024851e+07 -1.433735153850e+07 -1.451921200351e+07 -1.418823074045e+07 -1.436213583436e+07 -1.447431387969e+07 -1.450281716244e+07 -1.451878271819e+07 -1.401676394927e+07 -1.427667429476e+07 -1.433430638587e+07 -1.407839130046e+07 -1.404705413016e+07 -1.429308630890e+07 -1.402918776814e+07 -1.401584838770e+07 -1.400300507631e+07 -1.450050808072e+07 -1.426421902877e+07 -1.448683046602e+07 -1.424824751379e+07 -1.448048220172e+07 -1.424034869364e+07 -1.398219198723e+07 -1.422301196857e+07 -1.447233113531e+07 -1.443755270815e+07 -1.418374780021e+07 -1.396105756416e+07 -1.439290902054e+07 -1.413730638645e+07 -1.396567962603e+07 -1.444510136996e+07 -1.419090400903e+07 -1.447389726217e+07 -1.398631142524e+07 -1.422428103118e+07 -1.449495376035e+07 -1.400793346291e+07 -1.425022184831e+07 -1.451233051966e+07 -1.450915243000e+07 -1.404000774246e+07 -1.428769820026e+07 -1.447851812485e+07 -1.408551076493e+07 -1.433418862521e+07 -1.403183330030e+07 -1.428236103237e+07 -1.400635922336e+07 -1.423932051768e+07 -1.400025068845e+07 -1.420849164090e+07 -1.442348020081e+07 -1.402361260294e+07 -1.422608450783e+07 -1.437544852545e+07 -1.455608505091e+07 -1.475837401682e+07 -1.406594450590e+07 -1.415175342752e+07 -1.435836836492e+07 -1.460852969090e+07 -1.428050942088e+07 -1.452404606092e+07 -1.444389983894e+07 -1.465813577708e+07 -1.474853209744e+07 -1.481706600354e+07 -1.510132052219e+07 -1.539455689264e+07 -1.568400602792e+07 -1.597337838806e+07 -1.596669008764e+07 -1.596183896514e+07 -1.595558579082e+07 -1.595525725755e+07 -1.595538215960e+07 -1.595514655449e+07 -1.595485893568e+07 -1.595525298589e+07 -1.595438872962e+07 -1.595403046548e+07 -1.595578993823e+07 -1.595969844689e+07 -1.596011907339e+07 -1.471257861562e+07 -1.577305775125e+07 -1.573210909822e+07 -1.475909753293e+07 -1.572256249224e+07 -1.573962531332e+07 -1.553594003558e+07 -1.495095030204e+07 -1.548655985913e+07 -1.556475275464e+07 -1.571658039308e+07 -1.551468574494e+07 -1.570292023139e+07 -1.569256376670e+07 -1.570773469148e+07 -1.572056798727e+07 -1.569696640799e+07 -1.573308597495e+07 -1.570845619850e+07 -1.572515137832e+07 -1.571129259470e+07 -1.521148819959e+07 -1.535444519899e+07 -1.485440276004e+07 -1.478033673821e+07 -1.508135011139e+07 -1.474993264250e+07 -1.473249511832e+07 -1.472659966412e+07 -1.473406968281e+07 -1.473756151490e+07 -1.473354067500e+07 -1.472999411977e+07 -1.473020138267e+07 -1.473932902861e+07 -1.476746932900e+07 -1.506961577098e+07 -1.544125066878e+07 -1.524055111209e+07 -1.548252584550e+07 -1.527123756339e+07 -1.500833072336e+07 -1.497176023942e+07 -1.494476571573e+07 -1.522555802703e+07 -1.516446599879e+07 -1.543095268465e+07 -1.494515849186e+07 -1.512736132276e+07 -1.529178984902e+07 -1.545737104552e+07 -1.499038363208e+07 -1.514515706268e+07 -1.526984346136e+07 -1.497362107346e+07 -1.496688936947e+07 -1.495566271853e+07 -1.496124503016e+07 -1.500179249455e+07 -1.527612701140e+07 -1.552503074389e+07 -1.518539031286e+07 -1.538123653987e+07 -1.555389991569e+07 -1.516515970818e+07 -1.530525250244e+07 -1.542566638838e+07 -1.552312506310e+07 -1.555606921535e+07 -1.518683812557e+07 -1.536434700143e+07 -1.540290699668e+07 -1.557583287036e+07 -1.522678092414e+07 -1.546779414814e+07 -1.552556623921e+07 -1.535167621552e+07 -1.518980854505e+07 -1.520143033634e+07 -1.535084449885e+07 -1.551346324976e+07 -1.531648517054e+07 -1.626880486139e+07 -1.654467069707e+07 -1.682938204861e+07 -1.711401541762e+07 -1.739830511662e+07 -1.768294857912e+07 -1.796803003689e+07 -1.825246417283e+07 -1.853313680853e+07 -1.881500692263e+07 -1.880791424872e+07 -1.880201049051e+07 -1.880129976490e+07 -1.880153042682e+07 -1.880235476937e+07 -1.880304426487e+07 -1.880340529176e+07 -1.880369708556e+07 -1.880464129995e+07 -1.880653866710e+07 -1.880166544580e+07 -1.861846460617e+07 -1.616630818065e+07 -1.857607802202e+07 -1.621166318338e+07 -1.839104870441e+07 -1.856328618289e+07 -1.639586542377e+07 -1.858072506857e+07 -1.833505067570e+07 -1.840641175889e+07 -1.855801970247e+07 -1.835005340645e+07 -1.854621452653e+07 -1.855045937059e+07 -1.854854345382e+07 -1.853697310653e+07 -1.851769167076e+07 -1.849981728004e+07 -1.851178570164e+07 -1.807130504017e+07 -1.819147872816e+07 -1.778240143819e+07 -1.748875797728e+07 -1.720030099498e+07 -1.690729048346e+07 -1.659256394842e+07 -1.627071375565e+07 -1.632057619852e+07 -1.621965599784e+07 -1.618342882846e+07 -1.618853145789e+07 -1.620025619205e+07 -1.620562653254e+07 -1.620346881260e+07 -1.620155141415e+07 -1.620542155112e+07 -1.622525238957e+07 -1.670475252014e+07 -1.654161610608e+07 -1.637889107675e+07 -1.639901794320e+07 -1.701171357470e+07 -1.729078561285e+07 -1.758598226644e+07 -1.643490176472e+07 -1.790366204570e+07 -1.811841284913e+07 -1.783170266633e+07 -1.753961477773e+07 -1.725370054795e+07 -1.696884158243e+07 -1.667607758251e+07 -1.651116255603e+07 -1.830985223710e+07 -1.807652796616e+07 -1.646117186862e+07 -1.645982351242e+07 -1.644510917827e+07 -1.644537112194e+07 -1.647069026579e+07 -1.829677079192e+07 -1.800268549092e+07 -1.769067367359e+07 -1.739935353202e+07 -1.711965538119e+07 -1.683613750381e+07 -1.674135159185e+07 -1.669088071308e+07 -1.700407288577e+07 -1.691396419040e+07 -1.726430572411e+07 -1.713546676716e+07 -1.667805448506e+07 -1.687756765666e+07 -1.703958270091e+07 -1.753893316085e+07 -1.737573808019e+07 -1.721978960805e+07 -1.669782178076e+07 -1.688776673995e+07 -1.706144378315e+07 -1.783842801852e+07 -1.764083400224e+07 -1.745123847969e+07 -1.819784530992e+07 -1.824175406854e+07 -1.828471215439e+07 -1.832249903115e+07 -1.793171681463e+07 -1.771120428601e+07 -1.832907148304e+07 -1.830498306550e+07 -1.799324980707e+07 -1.806490085129e+07 -1.813403778657e+07 -1.806489533767e+07 -1.675955648823e+07 -1.726245681839e+07 -1.708628389427e+07 -1.692879502717e+07 -1.748500268697e+07 -1.774777944845e+07 -1.788696948135e+07 -1.726893112739e+07 -1.710466304415e+07 -1.702657869384e+07 -1.744982350284e+07 -1.760162457799e+07 -1.722416164861e+07 -1.735006310160e+07 -1.671701404099e+07 -1.697147917692e+07 -1.715117465093e+07 -1.664853312167e+07 -1.656069885830e+07 -1.802505839198e+07 -1.770269614435e+07 -1.734485227716e+07 -1.711368823401e+07 -1.686247257792e+07 -1.677046099359e+07 -1.706294842256e+07 -1.771638958176e+07 -1.743965667719e+07 -1.719433419579e+07 -1.733001549900e+07 -1.695219828419e+07 -1.911712274337e+07 -1.939860140482e+07 -1.969088528478e+07 -1.998458936024e+07 -2.027762013414e+07 -2.056972679839e+07 -2.086140154455e+07 -2.115225397345e+07 -2.143953195394e+07 -2.171237458567e+07 -2.170302113585e+07 -2.168761074699e+07 -2.168413265391e+07 -2.168387609012e+07 -2.168526217300e+07 -2.168610380548e+07 -2.168732519305e+07 -2.169007458181e+07 -2.170385892587e+07 -2.152816803640e+07 -1.900591287955e+07 -2.149544628390e+07 -1.904265716820e+07 -2.126781171523e+07 -2.130551584579e+07 -2.147327707579e+07 -1.922958638362e+07 -2.148897711987e+07 -2.132296780779e+07 -2.102313229434e+07 -2.111698778943e+07 -2.076003987738e+07 -2.048807876200e+07 -2.021345714810e+07 -1.994611159163e+07 -1.969511833943e+07 -1.944446505338e+07 -1.913338140542e+07 -2.144762046462e+07 -2.124399680654e+07 -2.143421813035e+07 -2.143115258445e+07 -2.141917506109e+07 -2.140496234274e+07 -2.142067537954e+07 -1.906179846829e+07 -1.907123337855e+07 -1.906957427767e+07 -1.906615246055e+07 -1.906438116515e+07 -1.906544931312e+07 -1.907086211904e+07 -1.908705728691e+07 -1.934611561862e+07 -1.956062483999e+07 -1.931104456702e+07 -1.955301010755e+07 -1.930146367186e+07 -1.976440168138e+07 -1.955121937386e+07 -1.929780212930e+07 -1.954584414438e+07 -1.929915142732e+07 -1.930551884239e+07 -1.954318987477e+07 -1.931497580169e+07 -1.954967256715e+07 -1.956450935593e+07 -2.001819319554e+07 -2.030075024211e+07 -2.059004807217e+07 -2.086487368316e+07 -2.098260560476e+07 -1.979995981087e+07 -1.980159265187e+07 -1.978578797032e+07 -1.978623793394e+07 -1.980351368244e+07 -1.931999072136e+07 -1.959586071354e+07 -1.983356294994e+07 -1.930270641927e+07 -2.103507864310e+07 -2.074156975268e+07 -2.044545236231e+07 -2.014404661143e+07 -1.983104008085e+07 -1.951566748720e+07 -1.964460603928e+07 -2.001517660553e+07 -1.989642515723e+07 -2.032910821102e+07 -2.062833489431e+07 -2.092687781437e+07 -2.121664305334e+07 -2.009142552233e+07 -2.003467709786e+07 -2.000876716031e+07 -2.003082345657e+07 -2.041985219217e+07 -2.029706519593e+07 -2.070634480700e+07 -2.056288900748e+07 -2.022720261680e+07 -2.019759282075e+07 -2.045024605965e+07 -2.039333520175e+07 -2.083076128498e+07 -2.067305449898e+07 -2.056248541130e+07 -2.007283263474e+07 -2.032912174142e+07 -2.006338947411e+07 -2.018771989426e+07 -2.050235097374e+07 -2.078578635007e+07 -2.109882390175e+07 -2.112381103584e+07 -2.116790888410e+07 -2.075281022471e+07 -2.117752021117e+07 -2.114852350581e+07 -2.090871998473e+07 -2.072456502249e+07 -2.092763740520e+07 -2.087756664004e+07 -2.073800400474e+07 -2.060442413212e+07 -2.035608663629e+07 -2.056548667860e+07 -1.744937545069e+07 -1.745214513105e+07 -1.745449420183e+07 -1.745564090977e+07 -1.745604433026e+07 -1.745586914866e+07 -1.745557235323e+07 -1.745541859091e+07 -1.745539019312e+07 -1.745541642456e+07 -1.745543430790e+07 -1.745541374812e+07 -1.745536217006e+07 -1.745531001016e+07 -1.745528677144e+07 -1.745530022224e+07 -1.745532868091e+07 -1.745533911388e+07 -1.745532016517e+07 -1.745528981039e+07 -1.745526649642e+07 -1.745523657117e+07 -1.745514484282e+07 -1.745496413437e+07 -1.745489266301e+07 -1.745531919610e+07 -1.745624405596e+07 -1.745709710861e+07 -1.745683887308e+07 -1.744852170738e+07 -1.744272465449e+07 -1.743599792551e+07 -1.712673724029e+07 -1.683727243113e+07 -1.653871038753e+07 -1.624404404107e+07 -1.615324583011e+07 -1.723296801258e+07 -1.619564740564e+07 -1.718513825181e+07 -1.620423290506e+07 -1.618857151999e+07 -1.639425624745e+07 -1.698987490708e+07 -1.644583261095e+07 -1.636676070123e+07 -1.621333182019e+07 -1.641908344948e+07 -1.622959307567e+07 -1.624283670436e+07 -1.623742246606e+07 -1.623579720539e+07 -1.623378017498e+07 -1.623213986641e+07 -1.623104417046e+07 -1.623038961836e+07 -1.623004287259e+07 -1.622990329936e+07 -1.622988716033e+07 -1.622994005243e+07 -1.623002464358e+07 -1.623011567256e+07 -1.623019781621e+07 -1.623024487443e+07 -1.623024468600e+07 -1.622327861063e+07 -1.622998890648e+07 -1.622969098031e+07 -1.622923434399e+07 -1.622869641886e+07 -1.622312385124e+07 -1.624080109816e+07 -1.620255721411e+07 -1.621499649077e+07 -1.672608890887e+07 -1.658156196726e+07 -1.708946472150e+07 -1.716598067285e+07 -1.686000049599e+07 -1.719842669245e+07 -1.721747373831e+07 -1.722269804399e+07 -1.721637653204e+07 -1.720895021994e+07 -1.720488295315e+07 -1.720273583742e+07 -1.720157800382e+07 -1.720096007161e+07 -1.720065767692e+07 -1.720055393995e+07 -1.720056928023e+07 -1.720064044851e+07 -1.720073452170e+07 -1.720083437259e+07 -1.720092324650e+07 -1.720098291581e+07 -1.720099381342e+07 -1.720093625675e+07 -1.720080351754e+07 -1.720064746558e+07 -1.720070221176e+07 -1.720170160547e+07 -1.720535159592e+07 -1.720842581482e+07 -1.720253664977e+07 -1.717555410255e+07 -1.686741555802e+07 -1.648896403285e+07 -1.669463668868e+07 -1.645487937672e+07 -1.666858153532e+07 -1.693683477416e+07 -1.697765007102e+07 -1.700770795183e+07 -1.671962292217e+07 -1.678982606022e+07 -1.699637653714e+07 -1.683547018173e+07 -1.651336980488e+07 -1.666634052167e+07 -1.648243993333e+07 -1.697930534551e+07 -1.673628359261e+07 -1.649091410291e+07 -1.674037897398e+07 -1.648620618452e+07 -1.648256762892e+07 -1.648021398458e+07 -1.697657174943e+07 -1.673343828685e+07 -1.697162008092e+07 -1.672961947848e+07 -1.696898638089e+07 -1.672743732774e+07 -1.696755157762e+07 -1.647881948381e+07 -1.672624054417e+07 -1.695991259386e+07 -1.695266896737e+07 -1.695259496641e+07 -1.695265651057e+07 -1.695278002263e+07 -1.695293479226e+07 -1.695308775330e+07 -1.695320547432e+07 -1.695325879262e+07 -1.695321231928e+07 -1.695303933603e+07 -1.695275017179e+07 -1.695247704780e+07 -1.695271224795e+07 -1.695534704933e+07 -1.696359606817e+07 -1.697065989786e+07 -1.693365199932e+07 -1.665318533711e+07 -1.640003510177e+07 -1.674206139371e+07 -1.653710212343e+07 -1.636444001111e+07 -1.676065176708e+07 -1.662332887632e+07 -1.646410649824e+07 -1.644899303442e+07 -1.660651331860e+07 -1.646734078828e+07 -1.647806052741e+07 -1.671877045712e+07 -1.647770630801e+07 -1.671854318173e+07 -1.647760375220e+07 -1.647074082808e+07 -1.671165333933e+07 -1.670485004606e+07 -1.670498952564e+07 -1.647086980793e+07 -1.647100368624e+07 -1.671204535533e+07 -1.647802414715e+07 -1.647124518232e+07 -1.671218295061e+07 -1.670539074170e+07 -1.670539089668e+07 -1.647127055903e+07 -1.646433285103e+07 -1.670524926273e+07 -1.671185531960e+07 -1.646412477005e+07 -1.647757217481e+07 -1.647013574054e+07 -1.671143839060e+07 -1.670400312453e+07 -1.671017524672e+07 -1.646926915650e+07 -1.670412058692e+07 -2.026480228798e+07 -2.026512241765e+07 -2.026886801807e+07 -2.027064422989e+07 -2.027089107892e+07 -2.027082656980e+07 -2.027051730755e+07 -2.027020812533e+07 -2.027015876773e+07 -2.027017827737e+07 -2.027019152171e+07 -2.027021856789e+07 -2.027027429928e+07 -2.027030497909e+07 -2.027023444011e+07 -2.027012279622e+07 -2.027009254265e+07 -2.027011958145e+07 -2.027014688673e+07 -2.027016055506e+07 -2.027011700349e+07 -2.027006047403e+07 -2.027008877938e+07 -2.027016079169e+07 -2.027020961012e+07 -2.027026526880e+07 -2.027038389424e+07 -2.027058723329e+07 -2.027089928609e+07 -2.027144057861e+07 -2.027162152098e+07 -2.026416666946e+07 -2.025842593527e+07 -2.025169456833e+07 -1.995896629784e+07 -1.968564463144e+07 -1.940358222928e+07 -1.912162003318e+07 -1.884002063719e+07 -1.855808231315e+07 -1.827571061859e+07 -1.799397334578e+07 -1.771595253414e+07 -1.763140301274e+07 -2.006025945058e+07 -1.767312275246e+07 -2.001501717256e+07 -1.785660050744e+07 -1.768594672630e+07 -1.983253238858e+07 -1.766871314969e+07 -1.791121640553e+07 -1.784058978088e+07 -1.769241867688e+07 -1.789631459002e+07 -1.770798176452e+07 -1.770879711542e+07 -1.771008103246e+07 -1.770830359584e+07 -1.770677391783e+07 -1.770684255933e+07 -1.770800288541e+07 -1.770915767917e+07 -1.770948031466e+07 -1.770882440269e+07 -1.770768099550e+07 -1.770678463471e+07 -1.770663007082e+07 -1.770712571366e+07 -1.770761406132e+07 -1.770749455274e+07 -1.770687124488e+07 -1.770629923699e+07 -1.770599119722e+07 -1.770532272914e+07 -1.770286177700e+07 -1.769860487387e+07 -1.769868862575e+07 -1.771005333962e+07 -1.772955994020e+07 -1.774787165339e+07 -1.773658032499e+07 -1.817119001413e+07 -1.805147686565e+07 -1.845686185899e+07 -1.874895756400e+07 -1.903546593088e+07 -1.932492508283e+07 -1.963617513847e+07 -1.995597555808e+07 -1.990301884198e+07 -2.000048322885e+07 -2.003800020754e+07 -2.003627804863e+07 -2.002371550712e+07 -2.001252673634e+07 -2.001077509916e+07 -2.001483426531e+07 -2.001835837800e+07 -2.002017992532e+07 -2.002191538220e+07 -2.002435745514e+07 -2.002550517007e+07 -2.002273759004e+07 -2.001885942372e+07 -2.001814860854e+07 -2.001924154016e+07 -2.002029028289e+07 -2.002077083958e+07 -2.001901782964e+07 -2.001710215556e+07 -2.001836833307e+07 -2.002075767533e+07 -2.002193697364e+07 -2.002290357259e+07 -2.002501322619e+07 -2.002730007596e+07 -2.002681363033e+07 -2.002153476432e+07 -2.000144452805e+07 -1.952189386210e+07 -1.967193935514e+07 -1.983325804176e+07 -1.982197352794e+07 -1.922152846363e+07 -1.894646606827e+07 -1.864922464002e+07 -1.979738540781e+07 -1.833207626808e+07 -1.812649920508e+07 -1.841025527253e+07 -1.869929806394e+07 -1.898227951361e+07 -1.926438616069e+07 -1.955458137342e+07 -1.971752546249e+07 -1.793922473030e+07 -1.816219793803e+07 -1.975842324379e+07 -1.974061126060e+07 -1.975208637763e+07 -1.976371919222e+07 -1.976852436618e+07 -1.977073772605e+07 -1.977614897804e+07 -1.978414829726e+07 -1.978498618165e+07 -1.977094342464e+07 -1.976322046444e+07 -1.976771988542e+07 -1.976949510225e+07 -1.977231855627e+07 -1.977353623526e+07 -1.976411432885e+07 -1.976165888974e+07 -1.977063049877e+07 -1.977438281635e+07 -1.977459878981e+07 -1.977688623551e+07 -1.978411579411e+07 -1.978953449536e+07 -1.978458192799e+07 -1.975778573692e+07 -1.794955739109e+07 -1.824036158387e+07 -1.854885595630e+07 -1.883698210701e+07 -1.911385047957e+07 -1.939492373814e+07 -1.948838785981e+07 -1.953917637388e+07 -1.922728779666e+07 -1.931605036285e+07 -1.896918031249e+07 -1.909514925143e+07 -1.955540632388e+07 -1.935252775194e+07 -1.918938358536e+07 -1.869726567260e+07 -1.885601624672e+07 -1.900756583781e+07 -1.954748233417e+07 -1.934436262028e+07 -1.916446271454e+07 -1.952541512114e+07 -1.952277810731e+07 -1.952930048412e+07 -1.952973643682e+07 -1.951919376614e+07 -1.948785599458e+07 -1.953262286199e+07 -1.953383960504e+07 -1.951813347214e+07 -1.951998156620e+07 -1.951668094080e+07 -1.949519320910e+07 -1.954984996320e+07 -1.956037933679e+07 -1.953811285665e+07 -1.952049171431e+07 -1.951707426736e+07 -1.951809650292e+07 -1.950599457417e+07 -1.947322744115e+07 -1.840107738469e+07 -1.859300192718e+07 -1.877488678397e+07 -1.895526779132e+07 -1.913026350166e+07 -1.931159423947e+07 -1.944294021409e+07 -1.804612967975e+07 -1.800080851950e+07 -1.795665383203e+07 -1.791850660258e+07 -1.830557048642e+07 -1.851660437569e+07 -1.872746093768e+07 -1.892332126438e+07 -1.908068611530e+07 -1.791179107581e+07 -1.792636381911e+07 -1.793425253643e+07 -1.793551545996e+07 -1.793567654574e+07 -1.793681623070e+07 -1.793888852308e+07 -1.794027371421e+07 -1.793952565657e+07 -1.793763352442e+07 -1.793693481978e+07 -1.793847401774e+07 -1.794149651118e+07 -1.794417137993e+07 -1.794468447234e+07 -1.794250198839e+07 -1.793893192390e+07 -1.793661368846e+07 -1.793816204423e+07 -1.794399974395e+07 -1.794817109504e+07 -1.794897342124e+07 -1.824012848890e+07 -1.816639687603e+07 -1.809777303809e+07 -1.815850887140e+07 -1.846884507609e+07 -1.833340286352e+07 -1.873588720872e+07 -1.890592957378e+07 -1.860456535289e+07 -1.881154374509e+07 -1.818715377759e+07 -1.818593805152e+07 -1.818369466170e+07 -1.818439898023e+07 -1.818855948522e+07 -1.819418867346e+07 -1.819562059823e+07 -1.819075021524e+07 -1.818622647309e+07 -1.818715884958e+07 -1.819290116499e+07 -1.820027149102e+07 -1.820454986375e+07 -1.820259251875e+07 -1.819517077042e+07 -1.818678390018e+07 -1.818356745359e+07 -1.819080955799e+07 -1.820998381275e+07 -1.821798574372e+07 -1.821032843011e+07 -1.851260438221e+07 -1.889605113642e+07 -1.912606455057e+07 -1.936616554348e+07 -1.954088657776e+07 -1.960354575191e+07 -1.963081557024e+07 -1.943727935222e+07 -1.947101317366e+07 -1.918862332589e+07 -1.939942870024e+07 -1.928414401745e+07 -1.904563678838e+07 -1.877427419127e+07 -1.849971005794e+07 -1.851927143698e+07 -1.845258261942e+07 -1.843013214458e+07 -1.843212707774e+07 -1.844816542154e+07 -1.846729677394e+07 -1.847806788105e+07 -1.847502026938e+07 -1.846068928286e+07 -1.844537933460e+07 -1.843791563625e+07 -1.844143075203e+07 -1.845891776199e+07 -1.846507189186e+07 -1.845102340527e+07 -1.843918951527e+07 -1.843436873848e+07 -1.843718272088e+07 -1.844935773721e+07 -1.918173723396e+07 -1.895364136934e+07 -1.873976672222e+07 -1.930729045195e+07 -1.908478471252e+07 -1.890673878913e+07 -1.878778241828e+07 -1.868826847141e+07 -1.864775453319e+07 -1.864664544402e+07 -1.866483552165e+07 -1.871222151794e+07 -1.874370901150e+07 -1.875141884648e+07 -1.873153079556e+07 -1.869537704245e+07 -1.867379417112e+07 -1.866842177734e+07 -1.868277193996e+07 -1.874827348946e+07 -1.871068600658e+07 -1.868189323300e+07 -1.866742332002e+07 -1.866549153481e+07 -1.867544449643e+07 -1.898130280558e+07 -1.888520488839e+07 -1.883437479565e+07 -1.883058362273e+07 -1.885665611498e+07 -1.917543972166e+07 -1.903581808088e+07 -1.898068448600e+07 -1.917451726953e+07 -1.926749174968e+07 -1.896907979875e+07 -1.902739526470e+07 -1.930086177008e+07 -1.907759370454e+07 -1.928914339618e+07 -1.911549046234e+07 -1.890615562478e+07 -1.901258994690e+07 -1.928140851205e+07 -1.902926024365e+07 -1.930386760303e+07 -1.905184644892e+07 -1.895601923474e+07 -1.935017311017e+07 -1.920917447757e+07 -1.940622251464e+07 -1.890881501354e+07 -1.913683974272e+07 -1.935004715428e+07 -1.888991703324e+07 -1.909965823970e+07 -1.927802672305e+07 -1.929709028290e+07 -1.909444373563e+07 -1.888677768106e+07 -1.930082304001e+07 -1.908508215088e+07 -1.888765500788e+07 -1.928885371099e+07 -1.904192013498e+07 -1.898440819904e+07 -1.892755078953e+07 -1.889632575818e+07 -1.888712938627e+07 -1.889119975059e+07 -1.927728713153e+07 -1.917444145750e+07 -1.937834867148e+07 -1.911749284807e+07 -1.932975917379e+07 -1.909304581049e+07 -1.926758337877e+07 -1.929651410499e+07 -1.909915221451e+07 -1.931140995121e+07 -1.910573745291e+07 -1.890230448289e+07 -1.931387556087e+07 -1.909151812636e+07 -1.929412560019e+07 -1.924978977034e+07 -1.898395816729e+07 -1.904768870905e+07 -1.870642302164e+07 -1.890938407721e+07 -1.847178396361e+07 -1.880085334638e+07 -2.170868052149e+07 -2.170416156353e+07 -2.170200221947e+07 -2.170301571897e+07 -2.170348924739e+07 -2.170346975555e+07 -2.170318875857e+07 -2.170291102047e+07 -2.170273090611e+07 -2.170263131927e+07 -2.170258043991e+07 -2.170255512449e+07 -2.170254202720e+07 -2.170253452956e+07 -2.170252973993e+07 -2.170252640003e+07 -2.170252384920e+07 -2.170252169520e+07 -2.170251973905e+07 -2.170251792269e+07 -2.170251629227e+07 -2.170251504443e+07 -2.170251472037e+07 -2.170251657463e+07 -2.170252299902e+07 -2.170253749447e+07 -2.170256293792e+07 -2.170259505198e+07 -2.170260253922e+07 -2.170247307696e+07 -2.170193585739e+07 -2.170123308076e+07 -2.168767417880e+07 -2.169159774962e+07 -2.168766328162e+07 -2.140120248612e+07 -2.111815753231e+07 -2.082688748451e+07 -2.053943891937e+07 -2.150250429218e+07 -2.045216324928e+07 -2.049136360502e+07 -2.145068163986e+07 -2.050705643553e+07 -2.048362261163e+07 -2.068618849425e+07 -2.126096260974e+07 -2.073545034363e+07 -2.065742205758e+07 -2.050599574437e+07 -2.070662061219e+07 -2.051867195675e+07 -2.052970287536e+07 -2.053420220821e+07 -2.054021423270e+07 -2.052787439644e+07 -2.052396541230e+07 -2.052182207212e+07 -2.052075146181e+07 -2.052023647832e+07 -2.051998094811e+07 -2.051983852883e+07 -2.051974758269e+07 -2.051968433474e+07 -2.051963732941e+07 -2.051959901501e+07 -2.051956497014e+07 -2.051953385540e+07 -2.051950693511e+07 -2.051948872548e+07 -2.051949029418e+07 -2.051953656663e+07 -2.051967949143e+07 -2.052002134041e+07 -2.052076001373e+07 -2.052233197513e+07 -2.052581427853e+07 -2.053386424827e+07 -2.055055802787e+07 -2.054979158353e+07 -2.100893309194e+07 -2.086628867835e+07 -2.136417141274e+07 -2.143743337252e+07 -2.113779027665e+07 -2.146729077164e+07 -2.148463999784e+07 -2.149234794755e+07 -2.149132340987e+07 -2.148604511782e+07 -2.148114254287e+07 -2.147804307091e+07 -2.147634965533e+07 -2.147548967635e+07 -2.147506231589e+07 -2.147484014985e+07 -2.147471180461e+07 -2.147462910393e+07 -2.147457102288e+07 -2.147452633927e+07 -2.147448836270e+07 -2.147445376246e+07 -2.147442167443e+07 -2.147439312687e+07 -2.147437203206e+07 -2.147436887357e+07 -2.147440744061e+07 -2.147453214062e+07 -2.147480629892e+07 -2.147527803222e+07 -2.147585437574e+07 -2.147591847849e+07 -2.147329161713e+07 -2.146282674446e+07 -2.143586213071e+07 -2.112225019743e+07 -2.078037691996e+07 -2.097349644179e+07 -2.073707874411e+07 -2.094807177901e+07 -2.120950396898e+07 -2.124465534764e+07 -2.127089120736e+07 -2.099137562738e+07 -2.104841591470e+07 -2.078388598859e+07 -2.127515533461e+07 -2.107939683818e+07 -2.091348039924e+07 -2.074769872431e+07 -2.126276820663e+07 -2.106154509269e+07 -2.091468295537e+07 -2.080837459766e+07 -2.124984653906e+07 -2.123549988679e+07 -2.123087519838e+07 -2.122853658209e+07 -2.122744605301e+07 -2.122687574429e+07 -2.122657394989e+07 -2.122639356367e+07 -2.122627339190e+07 -2.122618661056e+07 -2.122611813273e+07 -2.122605886377e+07 -2.122600475057e+07 -2.122595583768e+07 -2.122591635561e+07 -2.122589808720e+07 -2.122592846044e+07 -2.122606291638e+07 -2.122641444296e+07 -2.122707598565e+07 -2.123483403745e+07 -2.122962233058e+07 -2.123024997010e+07 -2.122429451326e+07 -2.117695668605e+07 -2.083813517737e+07 -2.099317372076e+07 -2.077418184701e+07 -2.099094255604e+07 -2.076098813604e+07 -2.098479177975e+07 -2.075421941798e+07 -2.098790201642e+07 -2.075116474261e+07 -2.074296760327e+07 -2.098588249431e+07 -2.097141610335e+07 -2.074222193972e+07 -2.097754793950e+07 -2.074859500563e+07 -2.097728970881e+07 -2.074845643714e+07 -2.097719714263e+07 -2.074841994965e+07 -2.097718722267e+07 -2.074843190840e+07 -2.097721610664e+07 -2.074846609176e+07 -2.097726271939e+07 -2.074851056252e+07 -2.097731790665e+07 -2.074856063703e+07 -2.097737902940e+07 -2.074861640879e+07 -2.097744876208e+07 -2.074868286729e+07 -2.097753542313e+07 -2.074876967298e+07 -2.097765232896e+07 -2.074889046290e+07 -2.097782019895e+07 -2.074907043048e+07 -2.097808635356e+07 -2.074937663631e+07 -2.097857478188e+07 -2.074322860358e+07 -2.097276573185e+07 -2.098152527286e+07 -2.074443506038e+07 -2.075384652624e+07 -2.098583205878e+07 -2.075905382857e+07 -2.100709779450e+07 -2.078294748839e+07 -2.103577299689e+07 -1.286172557913e+07 -1.299161905145e+07 -1.293024163531e+07 -1.291656268759e+07 -1.278854113928e+07 -1.292636288751e+07 -1.265923431491e+07 -1.266678936386e+07 -1.262438231102e+07 -1.249833420816e+07 -1.207122428028e+07 -1.200186176610e+07 -1.193809132474e+07 -1.130114594732e+07 -1.125043270154e+07 -1.116542939782e+07 -1.076822290448e+07 -1.071355671356e+07 -1.063527516104e+07 -1.024361696369e+07 -1.022988815175e+07 -1.015375205763e+07 -1.008994736837e+07 -1.008474288896e+07 -1.008755048443e+07 -1.001264106668e+07 -1.023057805792e+07 -1.011218365682e+07 -1.017924739778e+07 -1.008628574828e+07 -1.003161072872e+07 -1.016557696233e+07 -1.029571195155e+07 -1.029612783514e+07 -1.037121433090e+07 -1.050576556303e+07 -1.045157120901e+07 -1.055959594986e+07 -1.044159094068e+07 -1.057166359041e+07 -1.030986362243e+07 -1.037786919819e+07 -1.051259171140e+07 -1.043675471117e+07 -1.080556288329e+07 -1.066067646225e+07 -1.072606617448e+07 -1.059814542000e+07 -1.071754258169e+07 -1.084761523308e+07 -1.082302030581e+07 -1.089762245070e+07 -1.103589352924e+07 -1.098038497702e+07 -1.108658929230e+07 -1.099349422559e+07 -1.112356687763e+07 -1.088671692003e+07 -1.095340162093e+07 -1.108307508864e+07 -1.100682205315e+07 -1.134914188854e+07 -1.122970071645e+07 -1.126038309752e+07 -1.117485095831e+07 -1.126944587088e+07 -1.139951852377e+07 -1.135008608419e+07 -1.143065362406e+07 -1.155719253339e+07 -1.150866138086e+07 -1.161333362941e+07 -1.168658810463e+07 -1.180870129273e+07 -1.175220745661e+07 -1.187646709418e+07 -1.180880647464e+07 -1.193869994656e+07 -1.173956709647e+07 -1.167547017078e+07 -1.154539751746e+07 -1.146267922179e+07 -1.149450282828e+07 -1.160848246015e+07 -1.149443884047e+07 -1.174060488544e+07 -1.177053747430e+07 -1.190240836938e+07 -1.218925478449e+07 -1.203186349949e+07 -1.209135723744e+07 -1.200148825737e+07 -1.207203625041e+07 -1.220192972256e+07 -1.213990700701e+07 -1.220061857752e+07 -1.236835377728e+07 -1.229555126239e+07 -1.240428244960e+07 -1.233526602633e+07 -1.246515949864e+07 -1.226532039203e+07 -1.232494437194e+07 -1.245242548072e+07 -1.238129803454e+07 -1.270922030737e+07 -1.258702328202e+07 -1.263643675107e+07 -1.252830947416e+07 -1.259849580268e+07 -1.272838927494e+07 -1.279114486681e+07 -1.284361641407e+07 -1.296883464123e+07 -1.288959851493e+07 -1.349945349644e+07 -1.336796580262e+07 -1.341900321764e+07 -1.401784358698e+07 -1.389747151274e+07 -1.394127645786e+07 -1.450209361428e+07 -1.439450058764e+07 -1.439435030360e+07 -1.514509371216e+07 -1.497097641021e+07 -1.503562952904e+07 -1.570081018760e+07 -1.558010093903e+07 -1.561229458054e+07 -1.655944616846e+07 -1.640097357425e+07 -1.643233466704e+07 -1.714770709945e+07 -1.700463130297e+07 -1.705539744702e+07 -1.772276295177e+07 -1.757985368814e+07 -1.763670334402e+07 -1.828468696286e+07 -1.815460512321e+07 -1.820570586560e+07 -1.880345557475e+07 -1.869049897175e+07 -1.869045738663e+07 -1.893647727083e+07 -1.893531592950e+07 -1.896750376443e+07 -1.910029335480e+07 -1.964523278233e+07 -1.952194903193e+07 -1.957063043800e+07 -2.016908775536e+07 -2.003864898736e+07 -2.008110982898e+07 -2.070687149017e+07 -2.057436014778e+07 -2.062535157832e+07 -2.122694850158e+07 -2.110622245630e+07 -2.114780647351e+07 -2.170857872264e+07 -2.158352443224e+07 -2.158231985612e+07 -2.170984763768e+07 -2.160668213315e+07 -2.160641415829e+07 -2.147325731611e+07 -2.136133354316e+07 -2.138437564728e+07 -2.131800641862e+07 -2.143679085579e+07 -2.130604111958e+07 -2.156902293632e+07 -2.170786534435e+07 -2.156948142452e+07 -2.153699457814e+07 -2.139134261287e+07 -2.107517710732e+07 -2.124838724091e+07 -2.118388621563e+07 -2.128009307276e+07 -2.115930754323e+07 -2.102855780723e+07 -2.105343073670e+07 -2.097097622417e+07 -2.084259108352e+07 -2.089282640949e+07 -2.078863239937e+07 -2.088182423090e+07 -2.075107449493e+07 -2.098905518952e+07 -2.092559202219e+07 -2.079024356047e+07 -2.086994126615e+07 -2.052259537189e+07 -2.064258510388e+07 -2.061046481128e+07 -2.069908888813e+07 -2.060434091853e+07 -2.047359118266e+07 -2.052371719704e+07 -2.043852651132e+07 -2.030474586027e+07 -2.035215823996e+07 -2.025876889700e+07 -2.032685760639e+07 -2.019610787022e+07 -2.040957296941e+07 -2.037639874147e+07 -2.026266356229e+07 -2.037639795583e+07 -2.012217254702e+07 -2.010623150500e+07 -1.996532042309e+07 -2.012274104212e+07 -2.005375863838e+07 -1.992307153615e+07 -1.999391832518e+07 -1.990337770510e+07 -1.978038230302e+07 -1.982152459094e+07 -1.972927826264e+07 -1.978072230436e+07 -1.965003520172e+07 -1.984310505169e+07 -1.982749420397e+07 -1.967007975780e+07 -1.979539337000e+07 -1.937382764168e+07 -1.952535250567e+07 -1.947816210087e+07 -1.956130347975e+07 -1.950768596983e+07 -1.937699886740e+07 -1.946462498510e+07 -1.938570852874e+07 -1.923051500173e+07 -1.928820662808e+07 -1.919906811980e+07 -1.923464963544e+07 -1.910396253287e+07 -1.927965668558e+07 -1.922928509449e+07 -1.908792797190e+07 -1.917865236105e+07 -1.851735087264e+07 -1.865943615239e+07 -1.860180938890e+07 -1.784068691778e+07 -1.797949223456e+07 -1.787137171046e+07 -1.744756232807e+07 -1.755986346646e+07 -1.755991735348e+07 -1.683634069786e+07 -1.698286172649e+07 -1.700381341915e+07 -1.622735886993e+07 -1.635034538952e+07 -1.631772118097e+07 -1.527432904173e+07 -1.540450722724e+07 -1.530300095930e+07 -1.471899988563e+07 -1.484917807146e+07 -1.477602968849e+07 -1.417822146448e+07 -1.430819755638e+07 -1.424902472537e+07 -1.365158959014e+07 -1.378156568203e+07 -1.372161368032e+07 -1.330319264695e+07 -1.341633852717e+07 -1.339289414955e+07 -1.345813322983e+07 -1.355025299983e+07 -1.367410156743e+07 -1.363392880205e+07 -1.380885497820e+07 -1.394057261995e+07 -1.389567635259e+07 -1.398531978884e+07 -1.407557946908e+07 -1.420733938401e+07 -1.416585828558e+07 -1.434212808965e+07 -1.446922503417e+07 -1.443090283458e+07 -1.451259598075e+07 -1.460372664684e+07 -1.472588966308e+07 -1.468568495161e+07 -1.486033129433e+07 -1.498080826054e+07 -1.493356437092e+07 -1.503942121263e+07 -1.511560554698e+07 -1.524253370932e+07 -1.518624495830e+07 -1.537852527709e+07 -1.553627685425e+07 -1.547595723932e+07 -1.556745016764e+07 -1.566604683088e+07 -1.582885781161e+07 -1.579823341440e+07 -1.596137856964e+07 -1.583000120705e+07 -1.607770528057e+07 -1.607771948853e+07 -1.611165686358e+07 -1.596376854174e+07 -1.611034487385e+07 -1.610574800160e+07 -1.625466279609e+07 -1.640118382472e+07 -1.640837219816e+07 -1.650148643161e+07 -1.664017776804e+07 -1.658363966880e+07 -1.670554795638e+07 -1.679327895455e+07 -1.697047500932e+07 -1.690503525699e+07 -1.711679187378e+07 -1.729869983586e+07 -1.726587381832e+07 -1.729991235265e+07 -1.723750226103e+07 -1.738379736620e+07 -1.735025276397e+07 -1.744516361782e+07 -1.741432494265e+07 -1.748228991143e+07 -1.761912204207e+07 -1.759047914824e+07 -1.770156547805e+07 -1.781857591251e+07 -1.778926089392e+07 -1.796152683596e+07 -1.808977611812e+07 -1.803875745116e+07 -1.815259749862e+07 -1.823379551052e+07 -1.837283413114e+07 -1.831276321152e+07 -1.843413446391e+07 -1.840627204938e+07 -1.854507736626e+07 -1.860380498850e+07 -1.863206591687e+07 -1.871537776053e+07 -1.877165961731e+07 -1.880387166172e+07 -1.894362199011e+07 -1.889107359089e+07 -1.899829315991e+07 -1.896161330093e+07 -1.882896223281e+07 -1.874232919017e+07 -1.865967560641e+07 -1.854744953816e+07 -1.842900602265e+07 -1.845852675782e+07 -1.837496196629e+07 -1.826228480031e+07 -1.812347948345e+07 -1.809110274106e+07 -1.800922312207e+07 -1.786860221563e+07 -1.792814484954e+07 -1.780693980543e+07 -1.769711925009e+07 -1.758768464001e+07 -1.752355329156e+07 -1.743410846020e+07 -1.729336025264e+07 -1.734573558522e+07 -1.724064610396e+07 -1.720831751736e+07 -1.712536345003e+07 -1.695801664663e+07 -1.685872348838e+07 -1.670550841468e+07 -1.675235217478e+07 -1.667328885118e+07 -1.669202277583e+07 -1.654550174726e+07 -1.638842437761e+07 -1.626187376163e+07 -1.610407698346e+07 -1.611963971393e+07 -1.596229243084e+07 -1.584781499277e+07 -1.584780919312e+07 -1.581635688150e+07 -1.581581363103e+07 -1.568603304986e+07 -1.555199361952e+07 -1.552162029154e+07 -1.543163030887e+07 -1.529549726504e+07 -1.535129149546e+07 -1.523009285222e+07 -1.512684264942e+07 -1.499666446385e+07 -1.493749037797e+07 -1.482723785855e+07 -1.464825876367e+07 -1.468078485500e+07 -1.464700999605e+07 -1.457151349346e+07 -1.444153740156e+07 -1.436851013287e+07 -1.426203234766e+07 -1.415136899674e+07 -1.417625908792e+07 -1.410601671452e+07 -1.404488161934e+07 -1.391490552734e+07 -1.384323526916e+07 -1.376304382554e+07 -1.363430751465e+07 -1.368609114618e+07 -1.358021178368e+07 -1.351824974514e+07 -1.338827365322e+07 -1.331711118456e+07 -1.325493380802e+07 -1.323313933397e+07 -1.310341602753e+07 -1.315093531917e+07 -1.305406284836e+07 -1.312495771614e+07 -1.319496711179e+07 -1.317032988499e+07 -1.306136806015e+07 -1.317050660405e+07 -1.256223783075e+07 -1.252812769836e+07 -1.249552878579e+07 -1.240391428159e+07 -1.243294218841e+07 -1.237073817985e+07 -1.245378832467e+07 -1.243411350489e+07 -1.238653781361e+07 -1.217233420752e+07 -1.213631925050e+07 -1.210554528239e+07 -1.180598512763e+07 -1.182209399186e+07 -1.188506046529e+07 -1.190912292142e+07 -1.187332670446e+07 -1.184232781698e+07 -1.165188737010e+07 -1.162173402166e+07 -1.158493286264e+07 -1.155112962106e+07 -1.152036595994e+07 -1.149406144429e+07 -1.145709650515e+07 -1.126065658252e+07 -1.123328984626e+07 -1.119279830775e+07 -1.099626392891e+07 -1.096675186157e+07 -1.092712838953e+07 -1.073068028071e+07 -1.070182130834e+07 -1.066420640898e+07 -1.046772849142e+07 -1.043854071881e+07 -1.040045287523e+07 -1.020523784176e+07 -1.019966039640e+07 -1.016084449847e+07 -1.012893669106e+07 -1.012382723241e+07 -1.012580883871e+07 -1.008844422050e+07 -1.013604030670e+07 -1.012469010855e+07 -1.009802058913e+07 -1.019461872572e+07 -1.017061926652e+07 -1.047976297005e+07 -1.041144123042e+07 -1.044330133251e+07 -1.077050526275e+07 -1.069702914376e+07 -1.073119786161e+07 -1.105388165488e+07 -1.098812137818e+07 -1.101634601904e+07 -1.133146950151e+07 -1.127090181670e+07 -1.128766992819e+07 -1.140589995347e+07 -1.142530154954e+07 -1.147968288295e+07 -1.139047844227e+07 -1.150347356950e+07 -1.146841224064e+07 -1.143014735203e+07 -1.136195772697e+07 -1.133843995358e+07 -1.137346712888e+07 -1.131126312075e+07 -1.129679875123e+07 -1.122153630626e+07 -1.119228454674e+07 -1.114803404144e+07 -1.124705173775e+07 -1.120271219164e+07 -1.112924064207e+07 -1.115966507752e+07 -1.110265017916e+07 -1.107984441655e+07 -1.106266435528e+07 -1.110402924251e+07 -1.104182523466e+07 -1.101450939367e+07 -1.093959904419e+07 -1.091615685429e+07 -1.086592073231e+07 -1.095891769896e+07 -1.091993175338e+07 -1.084661869570e+07 -1.088265373139e+07 -1.081451614119e+07 -1.079773110784e+07 -1.078688875852e+07 -1.083459135744e+07 -1.077238734996e+07 -1.073222003761e+07 -1.065766178360e+07 -1.064002916335e+07 -1.058380742462e+07 -1.067034619863e+07 -1.062883951922e+07 -1.055546622179e+07 -1.058936876235e+07 -1.052594464148e+07 -1.051561780084e+07 -1.051111316414e+07 -1.056515347465e+07 -1.050294946802e+07 -1.044993068383e+07 -1.037572452568e+07 -1.036390147592e+07 -1.030169411947e+07 -1.038206440104e+07 -1.034325160606e+07 -1.026996291874e+07 -1.030686067291e+07 -1.023766284330e+07 -1.023350449534e+07 -1.023533757322e+07 -1.029571559749e+07 -1.023351159265e+07 -1.016557341388e+07 -1.012469345914e+07 -1.012366309917e+07 -1.008705903944e+07 -1.016558051188e+07 -1.023392383255e+07 -1.026872674911e+07 -1.033570902028e+07 -1.030653869087e+07 -1.036199089826e+07 -1.035974903367e+07 -1.043342714636e+07 -1.049739194320e+07 -1.053248027678e+07 -1.059947047953e+07 -1.057058080654e+07 -1.062545901593e+07 -1.062936296031e+07 -1.070321712220e+07 -1.076081629825e+07 -1.079540225575e+07 -1.086237850451e+07 -1.083299482750e+07 -1.088888337266e+07 -1.089897689138e+07 -1.097300710155e+07 -1.102438528442e+07 -1.106107217332e+07 -1.112810678146e+07 -1.110078902014e+07 -1.115245235955e+07 -1.116859082423e+07 -1.124279708234e+07 -1.128788207599e+07 -1.132537037018e+07 -1.139242723992e+07 -1.136589752671e+07 -1.141594915163e+07 -1.143820475846e+07 -1.151258706434e+07 -1.158070100787e+07 -1.161421555274e+07 -1.164290501617e+07 -1.170781869361e+07 -1.167919669712e+07 -1.171665899796e+07 -1.177771559213e+07 -1.174791293029e+07 -1.181426308585e+07 -1.177628488344e+07 -1.184404673185e+07 -1.173844777158e+07 -1.177286814345e+07 -1.170616849985e+07 -1.167746963493e+07 -1.164407103830e+07 -1.157908810988e+07 -1.153488000136e+07 -1.154787250815e+07 -1.160848258361e+07 -1.154913810392e+07 -1.167739713665e+07 -1.167812756822e+07 -1.173949459814e+07 -1.180531734988e+07 -1.184220507135e+07 -1.190719113345e+07 -1.187744846221e+07 -1.190625074026e+07 -1.197116128376e+07 -1.194233016196e+07 -1.197405395254e+07 -1.204062043036e+07 -1.200483780727e+07 -1.207770299858e+07 -1.203962433996e+07 -1.210739245578e+07 -1.200167441362e+07 -1.203599137218e+07 -1.196928859478e+07 -1.193573800399e+07 -1.194935446071e+07 -1.196647541981e+07 -1.201656097197e+07 -1.215847348736e+07 -1.207865843355e+07 -1.210893485391e+07 -1.206723851074e+07 -1.210532203271e+07 -1.217031122865e+07 -1.214068137193e+07 -1.216959646424e+07 -1.223450387423e+07 -1.220577007468e+07 -1.223727141757e+07 -1.232113901759e+07 -1.228410857179e+07 -1.234207844111e+07 -1.230296379653e+07 -1.226490105589e+07 -1.229911460141e+07 -1.223240869018e+07 -1.219957013858e+07 -1.222844012012e+07 -1.226016098860e+07 -1.229523420464e+07 -1.242198086878e+07 -1.235733166626e+07 -1.238693964015e+07 -1.233107064549e+07 -1.236843899446e+07 -1.243343132408e+07 -1.246255922065e+07 -1.249108624952e+07 -1.252248499200e+07 -1.255788943351e+07 -1.275073543650e+07 -1.277909175176e+07 -1.281762456492e+07 -1.301199510496e+07 -1.303877081456e+07 -1.307892888332e+07 -1.327575064918e+07 -1.330321123962e+07 -1.334266508067e+07 -1.354052532620e+07 -1.356959585674e+07 -1.360739427900e+07 -1.380379628408e+07 -1.383311184075e+07 -1.387065831544e+07 -1.406234745480e+07 -1.408762392251e+07 -1.412932358464e+07 -1.431528210512e+07 -1.433142141165e+07 -1.438251634674e+07 -1.487974294680e+07 -1.489840009295e+07 -1.495439608336e+07 -1.518930866717e+07 -1.522381705991e+07 -1.526351402828e+07 -1.547791120509e+07 -1.550924272472e+07 -1.555220630829e+07 -1.575769449782e+07 -1.577784398378e+07 -1.583230547783e+07 -1.632109888430e+07 -1.633123172557e+07 -1.639394315255e+07 -1.661580926650e+07 -1.663553787576e+07 -1.668838246773e+07 -1.690785442993e+07 -1.693475960897e+07 -1.698022490320e+07 -1.719439786850e+07 -1.722348574363e+07 -1.726670668374e+07 -1.747969541367e+07 -1.750983509726e+07 -1.755197451694e+07 -1.776624801299e+07 -1.779857870778e+07 -1.783846522316e+07 -1.805157715893e+07 -1.808498834573e+07 -1.812376384675e+07 -1.833098394482e+07 -1.836009994273e+07 -1.840329196570e+07 -1.879761182072e+07 -1.875801565355e+07 -1.878513421752e+07 -1.867011891578e+07 -1.863371755402e+07 -1.870080587531e+07 -1.860367538822e+07 -1.862240073280e+07 -1.867627693020e+07 -1.914711482032e+07 -1.916479630855e+07 -1.921477387971e+07 -1.942628795857e+07 -1.945699690788e+07 -1.949357901055e+07 -1.968784114412e+07 -1.971558405971e+07 -1.975521598244e+07 -2.005197119377e+07 -2.004325386101e+07 -1.997549987667e+07 -1.994913663548e+07 -1.997367960981e+07 -2.001660186761e+07 -2.021453706219e+07 -2.023960611372e+07 -2.028198743332e+07 -2.032129604222e+07 -2.034451457841e+07 -2.041235628318e+07 -2.036997341978e+07 -2.067895574649e+07 -2.061175697046e+07 -2.063891978261e+07 -2.094347697125e+07 -2.087837051231e+07 -2.090507684160e+07 -2.120398486272e+07 -2.114276361535e+07 -2.116491881898e+07 -2.145968081755e+07 -2.140292626734e+07 -2.141574165679e+07 -2.133919554335e+07 -2.132057133980e+07 -2.126495328290e+07 -2.103129696167e+07 -2.099688243558e+07 -2.095750075545e+07 -2.074429422030e+07 -2.071305636492e+07 -2.067040827769e+07 -2.036880796198e+07 -2.040428694514e+07 -2.044255923333e+07 -2.053499267221e+07 -2.049998617403e+07 -2.056251331923e+07 -2.057664192708e+07 -2.051115009265e+07 -2.048219858526e+07 -2.046607394126e+07 -2.044598453016e+07 -2.039187307085e+07 -2.054097132699e+07 -2.060181741815e+07 -2.058436215511e+07 -2.062646327215e+07 -2.065235498835e+07 -2.068194860179e+07 -2.072628460434e+07 -2.081229764012e+07 -2.077087073844e+07 -2.083339788372e+07 -2.086054564273e+07 -2.079487546384e+07 -2.077171450404e+07 -2.082027184443e+07 -2.088890989601e+07 -2.085981110785e+07 -2.091642957364e+07 -2.093590201497e+07 -2.095961025871e+07 -2.101000997541e+07 -2.108960260788e+07 -2.104175530300e+07 -2.110428244815e+07 -2.114444935849e+07 -2.107860083493e+07 -2.106168080543e+07 -2.110852564032e+07 -2.119636242343e+07 -2.116356859529e+07 -2.120746745691e+07 -2.121944904156e+07 -2.123727191559e+07 -2.129373534661e+07 -2.150299606844e+07 -2.151493357273e+07 -2.157746071791e+07 -2.149639732054e+07 -2.142835307425e+07 -2.136690757579e+07 -2.131263986747e+07 -2.137516701273e+07 -2.136232620606e+07 -2.135271868860e+07 -2.141020451470e+07 -2.149725654228e+07 -2.147976810280e+07 -2.157068362551e+07 -2.163846753367e+07 -2.163927448493e+07 -2.170786534441e+07 -2.163761379584e+07 -2.164605157735e+07 -2.170857872255e+07 -2.164421254375e+07 -2.158352443230e+07 -2.164605157743e+07 -2.170857872260e+07 -2.164484700135e+07 -2.170984763769e+07 -2.165810627116e+07 -2.165932371498e+07 -2.159557912588e+07 -2.152785210836e+07 -2.154312788133e+07 -2.151611464350e+07 -2.151915825333e+07 -2.144505029269e+07 -2.138053356386e+07 -2.134039912226e+07 -2.127292581125e+07 -2.129718279403e+07 -2.125180120604e+07 -2.124809534405e+07 -2.117380903897e+07 -2.111595788176e+07 -2.108023647011e+07 -2.101288574338e+07 -2.104148220559e+07 -2.098722552413e+07 -2.097703243503e+07 -2.090256778551e+07 -2.085115954464e+07 -2.081584336708e+07 -2.074850389683e+07 -2.077749883940e+07 -2.072242718677e+07 -2.070596952588e+07 -2.063132653188e+07 -2.058624434225e+07 -2.054922982520e+07 -2.048184317876e+07 -2.050916808753e+07 -2.045751198431e+07 -2.043490661698e+07 -2.036008527838e+07 -2.029162875458e+07 -2.025768770445e+07 -2.022910160937e+07 -2.016384370791e+07 -2.019256368451e+07 -2.014527534394e+07 -2.007912901274e+07 -2.010222918104e+07 -2.005644547029e+07 -2.009097356345e+07 -2.002287372901e+07 -2.012875482692e+07 -2.008964527980e+07 -2.016096340096e+07 -2.018920236292e+07 -2.022742472172e+07 -2.029273821162e+07 -2.033694735356e+07 -2.032328221139e+07 -2.026266356079e+07 -2.032202200934e+07 -2.018914224158e+07 -2.018836034524e+07 -2.012268092086e+07 -2.005237023201e+07 -2.001553627961e+07 -1.995033850086e+07 -1.998476708120e+07 -1.996034658388e+07 -1.989497297139e+07 -1.992771311261e+07 -1.988011514859e+07 -1.981774312764e+07 -1.984021815380e+07 -1.979180540776e+07 -1.982198711598e+07 -1.975411870347e+07 -1.985560278171e+07 -1.981267477024e+07 -1.988387718025e+07 -1.991347586176e+07 -1.990691435296e+07 -1.989661508396e+07 -1.983475825655e+07 -1.968847490201e+07 -1.976829693570e+07 -1.975033944022e+07 -1.977273424150e+07 -1.973833434794e+07 -1.967325228004e+07 -1.971184645813e+07 -1.969159155822e+07 -1.962610223456e+07 -1.966307305004e+07 -1.961862565449e+07 -1.955610615553e+07 -1.958187680281e+07 -1.952715213016e+07 -1.955300066807e+07 -1.948536367766e+07 -1.958245073624e+07 -1.953570426021e+07 -1.960679095931e+07 -1.963167428993e+07 -1.961471092351e+07 -1.959468102187e+07 -1.954282970367e+07 -1.939952983475e+07 -1.947636838300e+07 -1.945128424245e+07 -1.949093266955e+07 -1.946113241579e+07 -1.939616605899e+07 -1.943892583469e+07 -1.942283653262e+07 -1.935723149791e+07 -1.939841977246e+07 -1.935600130900e+07 -1.927730102505e+07 -1.930648292734e+07 -1.926159526508e+07 -1.928401422022e+07 -1.921660865187e+07 -1.930929869086e+07 -1.925873375028e+07 -1.932970473836e+07 -1.935002749569e+07 -1.932552565837e+07 -1.929850468824e+07 -1.925384192635e+07 -1.911569674526e+07 -1.918738060575e+07 -1.916037670439e+07 -1.920928587537e+07 -1.918393048364e+07 -1.911907983804e+07 -1.916600521125e+07 -1.915408150663e+07 -1.908836076085e+07 -1.913286290724e+07 -1.908236345459e+07 -1.900229424557e+07 -1.901898417544e+07 -1.899784307477e+07 -1.893531865936e+07 -1.887353017859e+07 -1.887279151409e+07 -1.880345260403e+07 -1.887278878426e+07 -1.874336525152e+07 -1.874462171724e+07 -1.872676392766e+07 -1.876944775407e+07 -1.881752605854e+07 -1.888532648077e+07 -1.889308458768e+07 -1.894785362598e+07 -1.901502777219e+07 -1.903614664535e+07 -1.898176324042e+07 -1.905261851742e+07 -1.906866397010e+07 -1.904186413043e+07 -1.901286594564e+07 -1.897023625196e+07 -1.883290530176e+07 -1.890377493118e+07 -1.887554400877e+07 -1.892792234970e+07 -1.890672855157e+07 -1.884076716301e+07 -1.881168463365e+07 -1.878574857062e+07 -1.874522331296e+07 -1.875904765175e+07 -1.872883929719e+07 -1.868745395895e+07 -1.860134214665e+07 -1.855706171265e+07 -1.858661467141e+07 -1.846467695442e+07 -1.853348021686e+07 -1.847900324259e+07 -1.847487277357e+07 -1.844222124008e+07 -1.840334809714e+07 -1.836767314332e+07 -1.833688677640e+07 -1.826637666261e+07 -1.830517172791e+07 -1.798934511640e+07 -1.805438276666e+07 -1.802747782491e+07 -1.771845620389e+07 -1.777779112392e+07 -1.776176982348e+07 -1.744756233147e+07 -1.750753077688e+07 -1.750628991791e+07 -1.711404620913e+07 -1.715606269807e+07 -1.717050999465e+07 -1.736832290604e+07 -1.741567228338e+07 -1.740090300814e+07 -1.762899296049e+07 -1.768316619309e+07 -1.764536622180e+07 -1.765669147298e+07 -1.760449592408e+07 -1.719816868996e+07 -1.726903697138e+07 -1.722970340039e+07 -1.731274925101e+07 -1.733924592362e+07 -1.727914957138e+07 -1.735226265582e+07 -1.736827569005e+07 -1.740138685171e+07 -1.744792462228e+07 -1.743365885036e+07 -1.746170187597e+07 -1.749739484614e+07 -1.755419588460e+07 -1.760359752570e+07 -1.753713620501e+07 -1.756734607481e+07 -1.754746896224e+07 -1.747553549556e+07 -1.751269907693e+07 -1.742861952392e+07 -1.738347837104e+07 -1.733262975955e+07 -1.726209838489e+07 -1.727503666045e+07 -1.722197712265e+07 -1.718264355171e+07 -1.713631151233e+07 -1.706512187736e+07 -1.704967265271e+07 -1.682832765427e+07 -1.690294394000e+07 -1.691499513877e+07 -1.706319801513e+07 -1.704434746049e+07 -1.698719832551e+07 -1.693360446704e+07 -1.691698937333e+07 -1.682713138612e+07 -1.688370144757e+07 -1.653201249128e+07 -1.660234569316e+07 -1.657276608005e+07 -1.624604071749e+07 -1.630840640503e+07 -1.629066310521e+07 -1.596138068668e+07 -1.602321516871e+07 -1.602192034883e+07 -1.561930465630e+07 -1.560183363886e+07 -1.555194814701e+07 -1.550520602959e+07 -1.548970400890e+07 -1.540970612120e+07 -1.545903446429e+07 -1.514600040913e+07 -1.521036922392e+07 -1.518082070041e+07 -1.488645805529e+07 -1.494755421634e+07 -1.492227987056e+07 -1.462636570750e+07 -1.468831543958e+07 -1.466645536332e+07 -1.436382408682e+07 -1.442827516996e+07 -1.440728784507e+07 -1.409880550110e+07 -1.416562148974e+07 -1.414307546903e+07 -1.383363272562e+07 -1.390042787068e+07 -1.387635482868e+07 -1.357240779157e+07 -1.363521198507e+07 -1.361380962752e+07 -1.331690933296e+07 -1.337428359967e+07 -1.336130824675e+07 -1.306134699960e+07 -1.311932753034e+07 -1.311814113091e+07 -1.299246499690e+07 -1.299244564389e+07 -1.289467291836e+07 -1.295967151557e+07 -1.293038010186e+07 -1.276118905534e+07 -1.272899337235e+07 -1.269628791279e+07 -1.282964271051e+07 -1.279135434113e+07 -1.289742962883e+07 -1.286803762673e+07 -1.295963363740e+07 -1.302453164628e+07 -1.309298452821e+07 -1.305458098376e+07 -1.315779224101e+07 -1.322283646210e+07 -1.319365904297e+07 -1.322306434214e+07 -1.316082020403e+07 -1.313272297372e+07 -1.318157166833e+07 -1.324898669366e+07 -1.323358714382e+07 -1.326087266971e+07 -1.328800052707e+07 -1.335645145558e+07 -1.331789260669e+07 -1.342095287373e+07 -1.348600140878e+07 -1.345697929416e+07 -1.348653989765e+07 -1.342429575959e+07 -1.339588909177e+07 -1.343652773770e+07 -1.350371470593e+07 -1.348024194165e+07 -1.352403878785e+07 -1.355147176865e+07 -1.361991838300e+07 -1.358120422976e+07 -1.368411350609e+07 -1.374916635517e+07 -1.372029954504e+07 -1.375001545306e+07 -1.368777131497e+07 -1.365936954226e+07 -1.369745612307e+07 -1.376457220085e+07 -1.373858990576e+07 -1.378751923831e+07 -1.381494301004e+07 -1.388338531048e+07 -1.384451585266e+07 -1.394727413900e+07 -1.401233130204e+07 -1.398361979625e+07 -1.401349100885e+07 -1.395124687073e+07 -1.392307565074e+07 -1.396267200876e+07 -1.402983002466e+07 -1.400533234376e+07 -1.405122534679e+07 -1.407841425169e+07 -1.414685223810e+07 -1.410782747604e+07 -1.421043477170e+07 -1.427549624884e+07 -1.424694004740e+07 -1.427696656435e+07 -1.421472242618e+07 -1.418678058735e+07 -1.422786562776e+07 -1.429506499612e+07 -1.427203118633e+07 -1.431493028340e+07 -1.434188549314e+07 -1.441031916561e+07 -1.437113909901e+07 -1.478772709686e+07 -1.481078885544e+07 -1.474854471732e+07 -1.475838004479e+07 -1.482324805653e+07 -1.472003561680e+07 -1.468164640086e+07 -1.464132190192e+07 -1.460762983703e+07 -1.457804135434e+07 -1.453866119533e+07 -1.447359540429e+07 -1.451026029845e+07 -1.454044211976e+07 -1.447819798171e+07 -1.445035184270e+07 -1.449051930804e+07 -1.455769318813e+07 -1.453375709617e+07 -1.457850153882e+07 -1.460535673464e+07 -1.468065727305e+07 -1.471378555047e+07 -1.475055957754e+07 -1.481763919540e+07 -1.479036622258e+07 -1.484193524642e+07 -1.487590124994e+07 -1.495139956793e+07 -1.491918425965e+07 -1.504316468540e+07 -1.510783491764e+07 -1.506519389533e+07 -1.508113559141e+07 -1.501889145321e+07 -1.497717707437e+07 -1.500979835460e+07 -1.507676261843e+07 -1.504540611095e+07 -1.510532677060e+07 -1.514644576533e+07 -1.522214186283e+07 -1.519704661711e+07 -1.532794932606e+07 -1.539242177862e+07 -1.534266069373e+07 -1.535148232711e+07 -1.528923818895e+07 -1.524075682121e+07 -1.527261336209e+07 -1.533955638307e+07 -1.530744788204e+07 -1.536890651722e+07 -1.541699028057e+07 -1.549288415761e+07 -1.547490897449e+07 -1.555958492457e+07 -1.562012749192e+07 -1.562182906252e+07 -1.561273396642e+07 -1.568047023423e+07 -1.574657561734e+07 -1.575560002784e+07 -1.582320715662e+07 -1.576096301844e+07 -1.569139604040e+07 -1.576775706904e+07 -1.563335572565e+07 -1.568375926300e+07 -1.576333418650e+07 -1.574685836416e+07 -1.582999926176e+07 -1.589150894172e+07 -1.589224339990e+07 -1.589224534523e+07 -1.588708217962e+07 -1.596181164466e+07 -1.588458244779e+07 -1.633313367053e+07 -1.640465548860e+07 -1.633444653653e+07 -1.625325814700e+07 -1.632769086625e+07 -1.617678269497e+07 -1.618025435877e+07 -1.617743114985e+07 -1.610715265081e+07 -1.603865968006e+07 -1.604006432929e+07 -1.596572339321e+07 -1.604220293624e+07 -1.611042055712e+07 -1.604021160505e+07 -1.604144791149e+07 -1.609342412089e+07 -1.616937887574e+07 -1.614893763300e+07 -1.618599575412e+07 -1.618269243308e+07 -1.625597361665e+07 -1.633816324600e+07 -1.637861535715e+07 -1.645424999819e+07 -1.642247672530e+07 -1.648271108861e+07 -1.647683558115e+07 -1.655002498157e+07 -1.646817831756e+07 -1.654079290079e+07 -1.661531740338e+07 -1.662406440486e+07 -1.669889042009e+07 -1.662868146797e+07 -1.663533900421e+07 -1.667255464532e+07 -1.674809938439e+07 -1.671314358267e+07 -1.677988684675e+07 -1.677097872927e+07 -1.684407634630e+07 -1.675892548512e+07 -1.692291639914e+07 -1.699312535119e+07 -1.707815230972e+07 -1.713587610667e+07 -1.722476511876e+07 -1.720709035895e+07 -1.729991234962e+07 -1.736929531075e+07 -1.737012130181e+07 -1.737012130484e+07 -1.741442397718e+07 -1.746802413957e+07 -1.752401782757e+07 -1.757399209753e+07 -1.764591397729e+07 -1.762732343804e+07 -1.766084995840e+07 -1.767243317269e+07 -1.771151482759e+07 -1.778514044439e+07 -1.776530021421e+07 -1.789776405622e+07 -1.796660420102e+07 -1.791345499323e+07 -1.792285761663e+07 -1.785639629583e+07 -1.780491038966e+07 -1.784425244465e+07 -1.791587898501e+07 -1.788683343425e+07 -1.794174252074e+07 -1.799280434745e+07 -1.806728756845e+07 -1.804811122134e+07 -1.818122050514e+07 -1.825004220876e+07 -1.819622911776e+07 -1.820496785808e+07 -1.813850653734e+07 -1.808613617789e+07 -1.812084408732e+07 -1.819234190148e+07 -1.815873944099e+07 -1.822296830879e+07 -1.827493303011e+07 -1.834943469233e+07 -1.833092222836e+07 -1.842061677874e+07 -1.848707809954e+07 -1.850450527406e+07 -1.854893811786e+07 -1.862099263823e+07 -1.859022165592e+07 -1.864500695052e+07 -1.867368614241e+07 -1.870556705260e+07 -1.866278968704e+07 -1.873046824062e+07 -1.871361541658e+07 -1.864532830330e+07 -1.861615809088e+07 -1.857344997431e+07 -1.856345725487e+07 -1.858864091322e+07 -1.853044187720e+07 -1.847038028727e+07 -1.848651469154e+07 -1.844599665961e+07 -1.838857086187e+07 -1.831713053026e+07 -1.830392727280e+07 -1.825681901456e+07 -1.819085216818e+07 -1.821780849780e+07 -1.816213743445e+07 -1.810515129520e+07 -1.803369252253e+07 -1.802006804776e+07 -1.797686585208e+07 -1.790555354478e+07 -1.793704788054e+07 -1.787797449873e+07 -1.782173172874e+07 -1.775025451467e+07 -1.773590511209e+07 -1.769153500962e+07 -1.761906283833e+07 -1.764947125615e+07 -1.759458798486e+07 -1.755467584130e+07 -1.748276060485e+07 -1.745251859825e+07 -1.740517055811e+07 -1.733379500531e+07 -1.736192477428e+07 -1.731168079733e+07 -1.729571176137e+07 -1.722315101968e+07 -1.716961141046e+07 -1.711986854496e+07 -1.704731322477e+07 -1.707438703005e+07 -1.702905134000e+07 -1.704340931933e+07 -1.697003226154e+07 -1.688698195329e+07 -1.683316628290e+07 -1.675547078914e+07 -1.678041309618e+07 -1.674432354439e+07 -1.675569099921e+07 -1.668240572482e+07 -1.660225415791e+07 -1.654138989750e+07 -1.646103147398e+07 -1.647864915447e+07 -1.645945907098e+07 -1.646797267905e+07 -1.639477918768e+07 -1.631738968431e+07 -1.625187376584e+07 -1.617494859767e+07 -1.618346818623e+07 -1.610358668218e+07 -1.603728710305e+07 -1.603649836071e+07 -1.596229294876e+07 -1.590127411944e+07 -1.590254188614e+07 -1.588938250219e+07 -1.589060041469e+07 -1.581554425914e+07 -1.574333126087e+07 -1.568238588075e+07 -1.562117495006e+07 -1.563867497954e+07 -1.559464591212e+07 -1.553481364550e+07 -1.546139042030e+07 -1.544859467080e+07 -1.540151856558e+07 -1.533248267001e+07 -1.536166151764e+07 -1.530311847291e+07 -1.525042456404e+07 -1.517680355934e+07 -1.515706723142e+07 -1.511166150832e+07 -1.502336472510e+07 -1.505624020180e+07 -1.501051599869e+07 -1.496603548255e+07 -1.489221669839e+07 -1.486446475723e+07 -1.480834484181e+07 -1.472088381012e+07 -1.473839460062e+07 -1.464705624198e+07 -1.457889859650e+07 -1.457808760017e+07 -1.450209400318e+07 -1.444461380833e+07 -1.444580060781e+07 -1.443426038639e+07 -1.440433059306e+07 -1.433759371044e+07 -1.430275987939e+07 -1.424753686386e+07 -1.419142104637e+07 -1.420513931686e+07 -1.417176696803e+07 -1.414116133244e+07 -1.407442876382e+07 -1.404026646094e+07 -1.399379796302e+07 -1.393275577716e+07 -1.395598453138e+07 -1.390898552275e+07 -1.387799207169e+07 -1.381126381691e+07 -1.377748501553e+07 -1.373477655480e+07 -1.366949174055e+07 -1.369697049842e+07 -1.364596203714e+07 -1.361482281086e+07 -1.354809887040e+07 -1.351446153021e+07 -1.347144232653e+07 -1.340476254235e+07 -1.343202019795e+07 -1.338286143818e+07 -1.335165355038e+07 -1.328493392374e+07 -1.325136093094e+07 -1.320681086963e+07 -1.314102634511e+07 -1.316660767678e+07 -1.311981310194e+07 -1.308848428964e+07 -1.302176897714e+07 -1.298831259491e+07 -1.294322201307e+07 -1.287972202646e+07 -1.290454793282e+07 -1.285689512026e+07 -1.282536106018e+07 -1.275864888148e+07 -1.272539461333e+07 -1.269655141987e+07 -1.268195563360e+07 -1.261998689520e+07 -1.264640502157e+07 -1.259405972753e+07 -1.263155595638e+07 -1.266714719183e+07 -1.263408390436e+07 -1.256630325345e+07 -1.260458535526e+07 -1.249784646460e+07 -1.247014551741e+07 -1.251826394918e+07 -1.259710075034e+07 -1.257821366145e+07 -1.266384799075e+07 -1.272203277043e+07 -1.272605199934e+07 -1.279557526483e+07 -1.286622801930e+07 -1.286337696932e+07 -1.293026098827e+07 -1.299175481486e+07 
        </DataArray>
        <DataArray type="Float64" Name="STRESS_YY" format="ascii">
          -1.192805765219e+06 -1.231548096288e+06 -1.270891456833e+06 -1.310422487248e+06 -1.349923942668e+06 -1.389324843147e+06 -1.428702222394e+06 -1.468129854163e+06 -1.506506045368e+06 -1.545468455759e+06 -1.584517866877e+06 -1.583548957165e+06 -1.582829031626e+06 -1.582909127218e+06 -1.582976163312e+06 -1.582970756577e+06 -1.582929447843e+06 -1.582881813739e+06 -1.582848651935e+06 -1.582834894565e+06 -1.582827643245e+06 -1.582816900770e+06 -1.582815700342e+06 -1.582861196514e+06 -1.583023091107e+06 -1.583338797593e+06 -1.582724046708e+06 -1.583071070399e+06 -1.543506240538e+06 -1.504169616416e+06 -1.464803165482e+06 -1.425456467017e+06 -1.386105594121e+06 -1.386389827739e+06 -1.422230651445e+06 -1.458155137569e+06 -1.494086501401e+06 -1.530022804133e+06 -1.565937190497e+06 -1.601826804610e+06 -1.637729534712e+06 -1.673716945173e+06 -1.709516001466e+06 -1.745252114281e+06 -1.781383421351e+06 -1.780996723014e+06 -1.780828709437e+06 -1.780947660419e+06 -1.781122996071e+06 -1.781215147494e+06 -1.781260845443e+06 -1.781289746701e+06 -1.781308799916e+06 -1.781313228855e+06 -1.781304536864e+06 -1.781291750164e+06 -1.781284069537e+06 -1.781287347590e+06 -1.781302647809e+06 -1.781327068391e+06 -1.781356906700e+06 -1.781388342095e+06 -1.781413889604e+06 -1.781422161440e+06 -1.781408952514e+06 -1.781387877690e+06 -1.781384770795e+06 -1.781422180247e+06 -1.781502802476e+06 -1.781598540998e+06 -1.781652503509e+06 -1.781606112596e+06 -1.781524172042e+06 -1.780825789105e+06 -1.779948767389e+06 -1.741460978704e+06 -1.705509356661e+06 -1.668419069659e+06 -1.631343902581e+06 -1.594327809476e+06 -1.557312915934e+06 -1.520288054531e+06 -1.483262884519e+06 -1.446247475098e+06 -1.409245793360e+06 -1.372252165820e+06 -1.335238978492e+06 -1.298142389818e+06 -1.261018849678e+06 -1.224337304187e+06 -1.189580319093e+06 -1.190777066107e+06 -1.192618643526e+06 -1.192742826615e+06 -1.192690543474e+06 -1.192671708935e+06 -1.192682964801e+06 -1.192699043812e+06 -1.192710002711e+06 -1.192715649738e+06 -1.192717996865e+06 -1.192718814630e+06 -1.192719065643e+06 -1.192719136050e+06 -1.192719149706e+06 -1.192719147179e+06 -1.192719143142e+06 -1.192719135268e+06 -1.192719109507e+06 -1.192719039159e+06 -1.192718855630e+06 -1.192718376832e+06 -1.192717209189e+06 -1.192714690027e+06 -1.192709978180e+06 -1.192702412040e+06 -1.192692273515e+06 -1.192681793672e+06 -1.192675175594e+06 -1.192676189405e+06 -1.192684710846e+06 -1.192696238129e+06 -1.192705505427e+06 -1.192710071330e+06 -1.192710332078e+06 -1.192707487278e+06 -1.192702651250e+06 -1.192697696407e+06 -1.192696327351e+06 -1.192703950502e+06 -1.192726159543e+06 -1.192766609607e+06 -1.192822665331e+06 -1.192870600253e+06 -1.192829062921e+06 -1.192584622236e+06 -1.192127416420e+06 -1.754741886043e+06 -1.216469593910e+06 -1.213450552127e+06 -1.557269461144e+06 -1.551675615908e+06 -1.549915058051e+06 -1.221387901349e+06 -1.244677950113e+06 -1.724768782134e+06 -1.748712659302e+06 -1.221463811290e+06 -1.552292157856e+06 -1.247301035727e+06 -1.525223703406e+06 -1.518527412901e+06 -1.528325089615e+06 -1.549212752318e+06 -1.520099115519e+06 -1.547706764559e+06 -1.548036011198e+06 -1.547733637157e+06 -1.547484943961e+06 -1.547276062776e+06 -1.547266765087e+06 -1.547651495268e+06 -1.548341636328e+06 -1.548921363524e+06 -1.548949069140e+06 -1.548179351572e+06 -1.547021339792e+06 -1.482304585107e+06 -1.498925279023e+06 -1.441611764442e+06 -1.403973586314e+06 -1.510334308455e+06 -1.224943974992e+06 -1.226123126023e+06 -1.225800682946e+06 -1.225192598410e+06 -1.224697325706e+06 -1.224389846123e+06 -1.224250983892e+06 -1.224231392002e+06 -1.224272606139e+06 -1.224327012503e+06 -1.224367983648e+06 -1.224383368615e+06 -1.224361815885e+06 -1.224290184215e+06 -1.224173650701e+06 -1.224056060040e+06 -1.223999651457e+06 -1.224033636372e+06 -1.224132440907e+06 -1.224246147797e+06 -1.224339424405e+06 -1.224401637805e+06 -1.224436967584e+06 -1.224454254766e+06 -1.224461640700e+06 -1.224464521857e+06 -1.224465632724e+06 -1.224466058301e+06 -1.224466188305e+06 -1.224466220882e+06 -1.224466266624e+06 -1.224466280712e+06 -1.224466025513e+06 -1.224464906057e+06 -1.224461011945e+06 -1.224448748451e+06 -1.224415422117e+06 -1.224340155129e+06 -1.224204916304e+06 -1.224027632304e+06 -1.223976056878e+06 -1.224383686367e+06 -1.225085157957e+06 -1.280770280341e+06 -1.318080064735e+06 -1.355187393243e+06 -1.391882453731e+06 -1.428597132953e+06 -1.465449253222e+06 -1.502434388475e+06 -1.539480239218e+06 -1.576461619805e+06 -1.613305703771e+06 -1.650280999805e+06 -1.688299347073e+06 -1.746679125121e+06 -1.747019993717e+06 -1.747068114576e+06 -1.746698257427e+06 -1.746379137557e+06 -1.746374459090e+06 -1.746615384000e+06 -1.746881936999e+06 -1.747035783877e+06 -1.747073179155e+06 -1.747048608540e+06 -1.747008642944e+06 -1.746976097704e+06 -1.746958367180e+06 -1.746955477530e+06 -1.746963643401e+06 -1.746977165812e+06 -1.746989520260e+06 -1.746993991337e+06 -1.746991255678e+06 -1.747004155448e+06 -1.747037121429e+06 -1.746921234344e+06 -1.746199539902e+06 -1.744404232794e+06 -1.742004151064e+06 -1.742597101099e+06 -1.700155331780e+06 -1.654480123564e+06 -1.618975024249e+06 -1.586451239486e+06 -1.552622864530e+06 -1.516509009258e+06 -1.479379090313e+06 -1.443667971970e+06 -1.407880188816e+06 -1.708496827181e+06 -1.667587195378e+06 -1.631606200298e+06 -1.604149959232e+06 -1.713403387843e+06 -1.715460822848e+06 -1.715624320843e+06 -1.577803011616e+06 -1.715397847761e+06 -1.715350158950e+06 -1.715394127204e+06 -1.715391499531e+06 -1.715346309152e+06 -1.715292246499e+06 -1.715248376613e+06 -1.715226267944e+06 -1.715235291852e+06 -1.715280779949e+06 -1.715358315063e+06 -1.715441037409e+06 -1.715454404430e+06 -1.715256894394e+06 -1.714714598793e+06 -1.713931975178e+06 -1.713444369060e+06 -1.713853578458e+06 -1.715030805528e+06 -1.715919566407e+06 -1.714911348865e+06 -1.710323079640e+06 -1.286516679157e+06 -1.328759533311e+06 -1.370143335832e+06 -1.409759559370e+06 -1.449068871529e+06 -1.487219917040e+06 -1.257432829886e+06 -1.260662505861e+06 -1.259819130864e+06 -1.258308248448e+06 -1.257084039607e+06 -1.256264717643e+06 -1.255812031605e+06 -1.255659378310e+06 -1.255700557317e+06 -1.255818394858e+06 -1.255929685576e+06 -1.255991423772e+06 -1.255975527921e+06 -1.255843152798e+06 -1.255565547646e+06 -1.255204259340e+06 -1.254934890844e+06 -1.254914911704e+06 -1.255137569025e+06 -1.255462241833e+06 -1.255756523895e+06 -1.255966845827e+06 -1.256094707148e+06 -1.256161840659e+06 -1.256192674616e+06 -1.256205571049e+06 -1.256210818996e+06 -1.256212900112e+06 -1.256213519127e+06 -1.256213512061e+06 -1.256213470371e+06 -1.256213641973e+06 -1.256213782356e+06 -1.256212995479e+06 -1.256208538119e+06 -1.256193205630e+06 -1.256152555847e+06 -1.256060822713e+06 -1.255877124004e+06 -1.255568659489e+06 -1.255143758254e+06 -1.255155826269e+06 -1.256860467024e+06 -1.515253910605e+06 -1.481932808737e+06 -1.516129469927e+06 -1.518821723400e+06 -1.519384773545e+06 -1.518419494870e+06 -1.516684811350e+06 -1.515328082873e+06 -1.515084722372e+06 -1.515496356347e+06 -1.515969296464e+06 -1.516376948758e+06 -1.514983269802e+06 -1.481172800560e+06 -1.260757997359e+06 -1.301030864070e+06 -1.289320882088e+06 -1.284470121987e+06 -1.338381642537e+06 -1.374478330946e+06 -1.410673384789e+06 -1.323830146438e+06 -1.313743853813e+06 -1.447228471411e+06 -1.357933334917e+06 -1.392993538938e+06 -1.429052725206e+06 -1.342845836166e+06 -1.484119253225e+06 -1.465756293788e+06 -1.521246233358e+06 -1.558379174560e+06 -1.595158746112e+06 -1.630925918477e+06 -1.667629594538e+06 -1.679791918758e+06 -1.646670893197e+06 -1.683931988835e+06 -1.659509889896e+06 -1.612909322117e+06 -1.631625964164e+06 -1.502970141596e+06 -1.540492573591e+06 -1.577779933862e+06 -1.597143569460e+06 -1.284600403526e+06 -1.311155401427e+06 -1.331734318460e+06 -1.286836528323e+06 -1.287331179563e+06 -1.287654725672e+06 -1.287817366311e+06 -1.287907038133e+06 -1.287949500881e+06 -1.287961968886e+06 -1.287963140037e+06 -1.287962676611e+06 -1.287962626643e+06 -1.287963176021e+06 -1.287964127386e+06 -1.287964387649e+06 -1.287962099122e+06 -1.287954748914e+06 -1.287937374940e+06 -1.287897318503e+06 -1.287806229929e+06 -1.287616196787e+06 -1.287270477985e+06 -1.286728243856e+06 -1.285999710463e+06 -1.285261420357e+06 -1.284913616202e+06 -1.285256273808e+06 -1.286090713541e+06 -1.286892193990e+06 -1.287353068153e+06 -1.287515450584e+06 -1.287493874761e+06 -1.287346501625e+06 -1.287127311614e+06 -1.286940942058e+06 -1.286971900585e+06 -1.287431110934e+06 -1.288415745429e+06 -1.289964096271e+06 -1.292326354211e+06 -1.682004951302e+06 -1.654069625622e+06 -1.678702399048e+06 -1.676648574343e+06 -1.677174606253e+06 -1.679052232292e+06 -1.680511869073e+06 -1.681097020659e+06 -1.681125951722e+06 -1.680972193670e+06 -1.680811605844e+06 -1.680704802956e+06 -1.680665369773e+06 -1.680687053871e+06 -1.680757711913e+06 -1.680866757877e+06 -1.680999624395e+06 -1.681100484767e+06 -1.681019050519e+06 -1.680736940000e+06 -1.681016750646e+06 -1.682225206033e+06 -1.682529020118e+06 -1.677097115086e+06 -1.619567591552e+06 -1.320073189391e+06 -1.333843439541e+06 -1.295906021684e+06 -1.302400417997e+06 -1.351116336289e+06 -1.336776799623e+06 -1.329671110680e+06 -1.391127754730e+06 -1.429230313865e+06 -1.467582378063e+06 -1.480801696313e+06 -1.487416364782e+06 -1.445433608708e+06 -1.457432208184e+06 -1.410785596527e+06 -1.374931665678e+06 -1.428341693666e+06 -1.397723773232e+06 -1.364529594794e+06 -1.325862947689e+06 -1.358918361636e+06 -1.323620499525e+06 -1.357060264292e+06 -1.321954115685e+06 -1.320893754003e+06 -1.355392749913e+06 -1.352928765323e+06 -1.489501815965e+06 -1.462072646392e+06 -1.440103613130e+06 -1.417476810899e+06 -1.389843566634e+06 -1.488494350902e+06 -1.485511317095e+06 -1.481565164912e+06 -1.480235864347e+06 -1.481236873117e+06 -1.482123843000e+06 -1.482724151745e+06 -1.482094190235e+06 -1.320669218627e+06 -1.352218399252e+06 -1.320935549035e+06 -1.321313934287e+06 -1.321601126600e+06 -1.321704521969e+06 -1.321566481090e+06 -1.321075426346e+06 -1.319813775222e+06 -1.317800006868e+06 -1.316291352184e+06 -1.316454260257e+06 -1.317941042076e+06 -1.319567133259e+06 -1.320770548539e+06 -1.321575965311e+06 -1.322038583116e+06 -1.322266019785e+06 -1.322369694554e+06 -1.322418702647e+06 -1.322442270451e+06 -1.322451131656e+06 -1.322451254233e+06 -1.322447740672e+06 -1.322443881765e+06 -1.322440291378e+06 -1.322437937193e+06 -1.322441177046e+06 -1.322446433379e+06 -1.322418234787e+06 -1.322311811026e+06 -1.322153062853e+06 -1.321956942339e+06 -1.321347373350e+06 -1.352662730675e+06 -1.462018299567e+06 -1.437869843173e+06 -1.413311815936e+06 -1.386914351128e+06 -1.391565014784e+06 -1.385025344582e+06 -1.382670149938e+06 -1.383919301557e+06 -1.353329710194e+06 -1.353843541296e+06 -1.354059814924e+06 -1.353953164509e+06 -1.353523069319e+06 -1.352766265658e+06 -1.349490920488e+06 -1.344059614825e+06 -1.342508411145e+06 -1.345993792158e+06 -1.349632622883e+06 -1.351850053717e+06 -1.353428794422e+06 -1.354368098085e+06 -1.354809526525e+06 -1.354997019836e+06 -1.355089924397e+06 -1.355142029960e+06 -1.355165441858e+06 -1.355167871513e+06 -1.355159208959e+06 -1.355147242432e+06 -1.355133242355e+06 -1.355115592283e+06 -1.355105051065e+06 -1.355128292825e+06 -1.355170911763e+06 -1.355089418767e+06 -1.354796606241e+06 -1.354639747721e+06 -1.354881528542e+06 -1.435575233203e+06 -1.410488789115e+06 -1.385198600754e+06 -1.375270803810e+06 -1.410254479959e+06 -1.446691667163e+06 -1.483842398817e+06 -1.356819787036e+06 -1.521735288821e+06 -1.560079337600e+06 -1.580960863233e+06 -1.459067743094e+06 -1.428209785524e+06 -1.418807893801e+06 -1.408606970364e+06 -1.414344406105e+06 -1.453140735925e+06 -1.443603688306e+06 -1.447266960592e+06 -1.416072361997e+06 -1.448149786505e+06 -1.417442220347e+06 -1.386070076526e+06 -1.449114416705e+06 -1.449561174727e+06 -1.417259093717e+06 -1.385584485048e+06 -1.450333922716e+06 -1.417409359616e+06 -1.386439696325e+06 -1.385861123551e+06 -1.418640142064e+06 -1.449867810499e+06 -1.416899316467e+06 -1.385068351268e+06 -1.384515548185e+06 -1.372264032788e+06 -1.365213600659e+06 -1.366637834812e+06 -1.377905577590e+06 -1.382201542637e+06 -1.384953506891e+06 -1.386753653564e+06 -1.387491196572e+06 -1.387710644280e+06 -1.387823704860e+06 -1.387914490415e+06 -1.387966551502e+06 -1.387977137095e+06 -1.387961228784e+06 -1.387934959282e+06 -1.387903187533e+06 -1.387856738998e+06 -1.387792453742e+06 -1.387765470635e+06 -1.387887623489e+06 -1.388095174295e+06 -1.387745414307e+06 -1.386776967703e+06 -1.387165609321e+06 -1.413397862883e+06 -1.445288022992e+06 -1.464497046170e+06 -1.434956853242e+06 -1.414701155493e+06 -1.383197591318e+06 -1.411182188952e+06 -1.434263409862e+06 -1.465161429317e+06 -1.504243433834e+06 -1.543498130240e+06 -1.415790648966e+06 -1.444091918781e+06 -1.419531672306e+06 -1.419824840980e+06 -1.419765539938e+06 -1.419740257441e+06 -1.419871958810e+06 -1.419982578328e+06 -1.420016485649e+06 -1.419995200129e+06 -1.419949579611e+06 -1.419895465755e+06 -1.419821917095e+06 -1.419693807778e+06 -1.419502184040e+06 -1.419448466851e+06 -1.419946477680e+06 -1.420816280492e+06 -1.419142315782e+06 -1.415763053465e+06 -1.647028545905e+06 -1.607195842108e+06 -1.640323030998e+06 -1.639290649131e+06 -1.643664560762e+06 -1.647324647664e+06 -1.648752730665e+06 -1.648741849550e+06 -1.648405790881e+06 -1.648095203901e+06 -1.647882001112e+06 -1.647780074230e+06 -1.647775383306e+06 -1.647850727950e+06 -1.647997827613e+06 -1.648222857434e+06 -1.648521883060e+06 -1.648749261270e+06 -1.648224359554e+06 -1.646758278694e+06 -1.648574293791e+06 -1.653986502895e+06 -1.656708944786e+06 -1.639787693757e+06 -1.606362780448e+06 -1.352369731982e+06 -1.347991240021e+06 -1.390691919784e+06 -1.418283475215e+06 -1.574004525421e+06 -1.606477243078e+06 -1.631678824808e+06 -1.621953847337e+06 -1.603332060025e+06 -1.573923887566e+06 -1.593507508262e+06 -1.604703086409e+06 -1.613854975761e+06 -1.617582507296e+06 -1.616814750148e+06 -1.615884438496e+06 -1.615322753959e+06 -1.614933113426e+06 -1.614750779034e+06 -1.615627896961e+06 -1.614759798998e+06 -1.614906029061e+06 -1.615177748583e+06 -1.615612888052e+06 -1.616331215484e+06 -1.617196581416e+06 -1.615235901014e+06 -1.607932307156e+06 -1.585788156326e+06 -1.452987376527e+06 -1.483495714334e+06 -1.541385645601e+06 -1.564283559571e+06 -1.502020393981e+06 -1.464246818677e+06 -1.428318091232e+06 -1.392374170475e+06 -1.375092402564e+06 -1.411870322553e+06 -1.430146622308e+06 -1.447098209189e+06 -1.482868521281e+06 -1.463348497520e+06 -1.447308286577e+06 -1.437289135899e+06 -1.444798059706e+06 -1.521588966314e+06 -1.498080137836e+06 -1.478007153382e+06 -1.462591052792e+06 -1.456410498461e+06 -1.451697159444e+06 -1.449839174701e+06 -1.449998880936e+06 -1.450604701134e+06 -1.450912194024e+06 -1.451058395751e+06 -1.451149552791e+06 -1.451230549830e+06 -1.451300307145e+06 -1.451324939851e+06 -1.451240394857e+06 -1.450977772240e+06 -1.450758235285e+06 -1.451519717087e+06 -1.454200843058e+06 -1.537822873164e+06 -1.505639217506e+06 -1.491668323281e+06 -1.561445950713e+06 -1.522731069037e+06 -1.577948695582e+06 -1.591359525398e+06 -1.586917624623e+06 -1.476383038542e+06 -1.505247507050e+06 -1.535592418061e+06 -1.560568102915e+06 -1.497259608928e+06 -1.486769118998e+06 -1.523203082860e+06 -1.480672099683e+06 -1.511539082073e+06 -1.481601576446e+06 -1.504634810849e+06 -1.484244996474e+06 -1.484880474509e+06 -1.485115226918e+06 -1.485234568438e+06 -1.485338157236e+06 -1.485453811442e+06 -1.485570358094e+06 -1.485635219139e+06 -1.485482726852e+06 -1.484664177966e+06 -1.483741642282e+06 -1.487368579377e+06 -1.497603545070e+06 -1.531969962393e+06 -1.546576717246e+06 -1.526382956131e+06 -1.512494131791e+06 -1.516842423724e+06 -1.520301626046e+06 -1.520344773229e+06 -1.520073937801e+06 -1.519835573891e+06 -1.519656606213e+06 -1.519530971702e+06 -1.519441081140e+06 -1.519349048885e+06 -1.519164651750e+06 -1.518363284989e+06 -1.549116977018e+06 -1.527075764631e+06 -1.583190932623e+06 -1.550966668938e+06 -1.582520116861e+06 -1.549420314609e+06 -1.581841403516e+06 -1.550070463032e+06 -1.550951816807e+06 -1.550983511160e+06 -1.582499038032e+06 -1.583344250654e+06 -1.550155647642e+06 -1.583377051729e+06 -1.581644228798e+06 -1.582803987465e+06 -1.550318439939e+06 -1.550611230067e+06 -1.582283472260e+06 -1.584003650264e+06 -1.551084775609e+06 -1.552081700530e+06 -1.584792253680e+06 -1.590327377967e+06 -1.553940841188e+06 -1.541556209764e+06 -1.578593296349e+06 -1.563362714854e+06 -1.625435833338e+06 -1.663538671951e+06 -1.703097040654e+06 -1.742837628033e+06 -1.782493975826e+06 -1.822072021429e+06 -1.861637794779e+06 -1.901078653896e+06 -1.939992537432e+06 -1.979093933337e+06 -1.978171743869e+06 -1.977388066659e+06 -1.976322113315e+06 -1.976328199726e+06 -1.976424624174e+06 -1.976476812824e+06 -1.976483558922e+06 -1.976471863546e+06 -1.976425030804e+06 -1.976373837937e+06 -1.976407053140e+06 -1.976565851137e+06 -1.976919339072e+06 -1.977306277401e+06 -1.977619200664e+06 -1.941513422641e+06 -1.905664618619e+06 -1.869799311821e+06 -1.833928747350e+06 -1.798061746242e+06 -1.762203472032e+06 -1.726350989824e+06 -1.690488028829e+06 -1.654567586999e+06 -1.618952439228e+06 -1.610334000137e+06 -1.952118703253e+06 -1.948101296617e+06 -1.615225219536e+06 -1.944978891700e+06 -1.917400785709e+06 -1.921010694832e+06 -1.640520428205e+06 -1.947965461451e+06 -1.925628666227e+06 -1.884126576794e+06 -1.897914767393e+06 -1.848112004243e+06 -1.811293024905e+06 -1.775008048729e+06 -1.740057976521e+06 -1.706006390525e+06 -1.670506733855e+06 -1.627386193266e+06 -1.943850628249e+06 -1.916725363452e+06 -1.942073373654e+06 -1.941242722998e+06 -1.941685271907e+06 -1.942266528048e+06 -1.942823534111e+06 -1.943282323313e+06 -1.943152751182e+06 -1.941511849117e+06 -1.938444103208e+06 -1.938811818975e+06 -1.617695985574e+06 -1.618818315951e+06 -1.618430317976e+06 -1.617806171567e+06 -1.617381926735e+06 -1.617218112215e+06 -1.617204876592e+06 -1.617115971200e+06 -1.616757570266e+06 -1.616263899198e+06 -1.616124240541e+06 -1.617004756813e+06 -1.620019121175e+06 -1.655055811851e+06 -1.688244606852e+06 -1.647473707656e+06 -1.677976862160e+06 -1.645281043511e+06 -1.674853534835e+06 -1.718574698002e+06 -1.702481189325e+06 -1.702131701383e+06 -1.645282592576e+06 -1.674546816864e+06 -1.701824102151e+06 -1.646450064283e+06 -1.647594638311e+06 -1.647887577010e+06 -1.647718537418e+06 -1.647761566126e+06 -1.648332726281e+06 -1.649541267443e+06 -1.651200395477e+06 -1.676360167685e+06 -1.703630589409e+06 -1.750347435698e+06 -1.726720397718e+06 -1.727797902672e+06 -1.728140540545e+06 -1.786074426573e+06 -1.824402447673e+06 -1.862892297142e+06 -1.880753523867e+06 -1.679675524048e+06 -1.680902361724e+06 -1.680029608957e+06 -1.679501595907e+06 -1.679804245172e+06 -1.681218128363e+06 -1.683914099274e+06 -1.653330945123e+06 -1.689881536027e+06 -1.649489590351e+06 -1.708397457310e+06 -1.731749011247e+06 -1.908035839417e+06 -1.883718392372e+06 -1.844277946394e+06 -1.803632454645e+06 -1.762917724470e+06 -1.720746393359e+06 -1.678255373520e+06 -1.717078388999e+06 -1.712802675356e+06 -1.710975430378e+06 -1.710378055103e+06 -1.711401433098e+06 -1.714218663467e+06 -1.720166863620e+06 -1.896397273515e+06 -1.907603648564e+06 -1.913120266373e+06 -1.913539898929e+06 -1.912455250347e+06 -1.911193359391e+06 -1.910205662987e+06 -1.908817533363e+06 -1.907498234707e+06 -1.909135952561e+06 -1.867723496267e+06 -1.826704062008e+06 -1.785792975244e+06 -1.744228710303e+06 -1.695627201624e+06 -1.730386382406e+06 -1.769873125456e+06 -1.808480052934e+06 -1.848710895145e+06 -1.865024575587e+06 -1.885420055402e+06 -1.883824829355e+06 -1.881691454937e+06 -1.877587359285e+06 -1.876067703375e+06 -1.875361676932e+06 -1.871319898084e+06 -1.863711837549e+06 -1.758390145441e+06 -1.748968778226e+06 -1.753601261830e+06 -1.798052033946e+06 -1.774419407784e+06 -1.839845621598e+06 -1.809529992065e+06 -1.776607630583e+06 -1.758427585736e+06 -1.738509642936e+06 -1.829490893888e+06 -1.789127928878e+06 -1.763597363299e+06 -1.841376199314e+06 -1.752246976235e+06 -1.745458466668e+06 -1.843949822346e+06 -1.742630316266e+06 -1.838814775412e+06 -1.740125401110e+06 -1.740893599658e+06 -1.743202910516e+06 -1.747704817735e+06 -1.756339621602e+06 -1.791165366180e+06 -1.824938247903e+06 -1.780313498409e+06 -1.806096269207e+06 -1.831504432723e+06 -1.858351891483e+06 -1.774932934972e+06 -1.771326683517e+06 -1.767919141258e+06 -1.803503639390e+06 -1.800045728668e+06 -1.795945620260e+06 -1.829111545246e+06 -1.825075086461e+06 -1.854987805560e+06 -1.848497681181e+06 -1.817013204240e+06 -1.789856973822e+06 -1.800711932769e+06 -1.813621400968e+06 -1.821905779059e+06 -1.809503982355e+06 -1.779927966407e+06 -1.770666342963e+06 -1.795651278382e+06 -1.776361435528e+06 -1.767974419084e+06 -2.017404815480e+06 -2.056933390024e+06 -2.096799637071e+06 -2.136827402824e+06 -2.176905356487e+06 -2.215633493870e+06 -2.254123135318e+06 -2.292918811191e+06 -2.331581336421e+06 -2.370247917284e+06 -2.408938434918e+06 -2.447690556540e+06 -2.486438400326e+06 -2.525182798887e+06 -2.563691849899e+06 -2.599946251165e+06 -2.635807407993e+06 -2.671969524909e+06 -2.708070033628e+06 -2.744169641296e+06 -2.780283601913e+06 -2.816404225788e+06 -2.852522593026e+06 -2.888632992169e+06 -2.924728210277e+06 -2.960347251913e+06 -2.960212095542e+06 -2.921368768825e+06 -2.882054213264e+06 -2.842403735084e+06 -2.802826319293e+06 -2.763013055335e+06 -2.724673396550e+06 -2.686571653152e+06 -2.648165870499e+06 -2.609770640858e+06 -2.571284193647e+06 -2.533056269957e+06 -2.494929336478e+06 -2.456541595148e+06 -2.418112528732e+06 -2.379606894701e+06 -2.339134052334e+06 -2.298764287984e+06 -2.258153763570e+06 -2.217617537199e+06 -2.176863061083e+06 -2.140899713739e+06 -2.105161298454e+06 -2.069156427540e+06 -2.033210838101e+06 -1.997278082050e+06 -1.961342449813e+06 -1.925397439345e+06 -1.889443314268e+06 -1.853489109294e+06 -1.817550290094e+06 -2.361738686088e+06 -2.548370510555e+06 -2.387843464050e+06 -2.176798053618e+06 -2.176180393923e+06 -2.176525902034e+06 -2.176714873649e+06 -2.176726842605e+06 -2.176683820231e+06 -2.176654647297e+06 -2.176636258875e+06 -2.176627300059e+06 -2.176622336360e+06 -2.176617222493e+06 -2.176610560032e+06 -2.176603570948e+06 -2.176598639238e+06 -2.176597435469e+06 -2.176599837005e+06 -2.176604373711e+06 -2.176609183118e+06 -2.176612668410e+06 -2.176614099081e+06 -2.176613914579e+06 -2.176612457079e+06 -2.176607685943e+06 -2.176595390174e+06 -2.176578813295e+06 -2.176631066836e+06 -2.176532613854e+06 -2.176454352569e+06 -2.176601400644e+06 -2.175925441679e+06 -2.174955218138e+06 -2.133968241517e+06 -2.094483063189e+06 -2.054806850092e+06 -2.015164529885e+06 -1.975624952756e+06 -1.936076993620e+06 -1.896491345004e+06 -1.857885319996e+06 -1.818922468152e+06 -2.148980164847e+06 -1.806455870498e+06 -1.811000781443e+06 -1.812943923986e+06 -2.143883387722e+06 -2.117874370125e+06 -1.842398334831e+06 -1.837233887287e+06 -1.811211958296e+06 -1.834367395648e+06 -1.876657386675e+06 -1.863889038453e+06 -1.913493050838e+06 -1.950320951422e+06 -1.985759661413e+06 -2.019761880624e+06 -2.053288785711e+06 -2.088620552196e+06 -2.131839615952e+06 -1.814620722497e+06 -1.843656462215e+06 -1.815156908992e+06 -1.815514796959e+06 -1.815666228691e+06 -1.815954435872e+06 -1.816284198389e+06 -1.816373898911e+06 -1.816118212181e+06 -1.815678598698e+06 -1.815261134466e+06 -1.815011969357e+06 -1.815002728323e+06 -1.815200422028e+06 -1.815521980864e+06 -1.815902536246e+06 -1.816268598177e+06 -1.816447738758e+06 -1.816246881198e+06 -1.815767606403e+06 -1.815450652221e+06 -1.815715731721e+06 -1.816684117358e+06 -1.818075095829e+06 -1.819290492768e+06 -1.819498243053e+06 -1.817716490706e+06 -1.848637759935e+06 -2.141153864511e+06 -2.139780418933e+06 -2.140035633007e+06 -2.140649345343e+06 -2.141138890299e+06 -2.141393682287e+06 -2.141462289068e+06 -2.141445420665e+06 -2.141416199961e+06 -2.141381154400e+06 -2.141316522619e+06 -2.141219641189e+06 -2.141112801812e+06 -2.141028249819e+06 -2.140999702730e+06 -2.141045852483e+06 -2.141148481990e+06 -2.141254329907e+06 -2.141307729505e+06 -2.141288018133e+06 -2.141231060078e+06 -2.141222170456e+06 -2.141380789844e+06 -2.141758311722e+06 -2.142069671824e+06 -2.141556034981e+06 -2.138907343790e+06 -2.103668540784e+06 -2.070631435377e+06 -2.110570367784e+06 -2.080034616655e+06 -2.111875663769e+06 -2.040885903592e+06 -2.056078645039e+06 -2.081729332986e+06 -2.054962685462e+06 -2.111091528633e+06 -2.080170547206e+06 -2.109948385749e+06 -2.076839038987e+06 -2.109465286148e+06 -2.109496660871e+06 -2.109673647515e+06 -2.109799533166e+06 -2.109743046656e+06 -2.109514958667e+06 -2.109230888646e+06 -2.109044482266e+06 -2.109047384047e+06 -2.109216772373e+06 -2.109468304060e+06 -2.109720391556e+06 -2.109904273745e+06 -2.109980852522e+06 -2.110006542889e+06 -2.110068014357e+06 -2.110078643594e+06 -2.109799361972e+06 -2.109028524127e+06 -2.107729931202e+06 -2.106207282144e+06 -2.075373461116e+06 -2.075672971075e+06 -2.076077259065e+06 -2.076523065520e+06 -2.076591125084e+06 -2.076240753004e+06 -2.075642636300e+06 -2.075111283035e+06 -2.074958912345e+06 -2.075223792516e+06 -2.075704474171e+06 -2.076217540152e+06 -2.076641319789e+06 -2.076842899553e+06 -2.076754914044e+06 -2.076719651808e+06 -2.076934245213e+06 -2.076918520144e+06 -2.076200442974e+06 -2.074505751659e+06 -2.071758946863e+06 -2.052324864762e+06 -2.009908698823e+06 -2.032510134889e+06 -2.027968888278e+06 -1.976206298860e+06 -1.940169846441e+06 -1.901725489312e+06 -1.884564787674e+06 -2.104469709150e+06 -2.067105595284e+06 -2.046112442790e+06 -2.021179593343e+06 -2.037434321336e+06 -2.040891176826e+06 -2.040933353717e+06 -2.042364106242e+06 -2.042937963485e+06 -2.042566269780e+06 -2.041546660004e+06 -2.040278140566e+06 -2.039519367339e+06 -2.039827543564e+06 -2.040735183272e+06 -2.041670344306e+06 -2.042502065739e+06 -2.043082481446e+06 -2.043069364680e+06 -2.042178226066e+06 -2.042373963973e+06 -2.043299030515e+06 -2.043065642674e+06 -2.041731371579e+06 -2.038504056559e+06 -2.033455398111e+06 -2.108161556716e+06 -2.003174078514e+06 -2.003410560133e+06 -1.972040593982e+06 -2.078211343546e+06 -2.035473459610e+06 -1.993684527400e+06 -1.953691051378e+06 -1.913356454643e+06 -1.874364142031e+06 -1.854516536591e+06 -1.854980189673e+06 -1.852656904905e+06 -1.849473033023e+06 -1.846697466792e+06 -1.845436119108e+06 -1.845766515873e+06 -1.847054655972e+06 -1.848047101024e+06 -1.847943239054e+06 -1.847197763554e+06 -1.846388636182e+06 -1.845647405990e+06 -1.845039409300e+06 -1.844755985920e+06 -1.845025054753e+06 -1.845814557658e+06 -1.846852556477e+06 -1.847821522872e+06 -1.848105401607e+06 -1.847442861377e+06 -1.846591074085e+06 -1.846253250441e+06 -1.846349262777e+06 -1.847785329948e+06 -2.061117736883e+06 -2.026263609630e+06 -2.012194924425e+06 -1.970743413431e+06 -1.984456840261e+06 -1.932471599889e+06 -1.949127442252e+06 -1.890789013955e+06 -1.919311401370e+06 -1.895861774136e+06 -1.891905606207e+06 -1.886693694831e+06 -1.880229341958e+06 -1.876476244682e+06 -1.876037474947e+06 -1.878248964953e+06 -1.881696793113e+06 -1.882484586545e+06 -1.880924923671e+06 -1.879485021503e+06 -1.878207339606e+06 -1.876991384268e+06 -1.875926589742e+06 -1.875690756754e+06 -1.876749806840e+06 -1.878553176382e+06 -1.880565993011e+06 -1.882580562603e+06 -1.881947931875e+06 -1.879604066542e+06 -1.878366018111e+06 -1.878674124258e+06 -1.881278563673e+06 -1.993859609789e+06 -2.000914432559e+06 -2.007057383500e+06 -1.958814682372e+06 -1.930941187384e+06 -1.928865758334e+06 -2.009105821578e+06 -2.009053302752e+06 -2.009098009349e+06 -2.003974370287e+06 -2.008543091667e+06 -2.009312816963e+06 -2.008495809838e+06 -2.007274786449e+06 -2.006777859118e+06 -2.004221886174e+06 -2.002279809537e+06 -2.002640074481e+06 -2.005257818588e+06 -2.007435061178e+06 -2.008920059726e+06 -2.009031682095e+06 -2.006979663596e+06 -2.003216112470e+06 -1.963737049097e+06 -1.972681402301e+06 -1.983260469059e+06 -1.974381493001e+06 -1.929912827452e+06 -1.915558278679e+06 -1.952629257734e+06 -1.906559384455e+06 -1.937559865221e+06 -1.903750609797e+06 -1.926264235849e+06 -1.950770511911e+06 -1.979590392127e+06 -1.906256071446e+06 -1.929788215378e+06 -1.955093391310e+06 -1.979892545652e+06 -1.934758737025e+06 -1.958473068030e+06 -1.973770074227e+06 -1.977656885526e+06 -1.979834006786e+06 -1.911376901865e+06 -1.946819221728e+06 -1.954678143269e+06 -1.919780631606e+06 -1.915507381144e+06 -1.949057223701e+06 -1.913071059082e+06 -1.911252052690e+06 -1.909500692083e+06 -1.977342010793e+06 -1.945120776438e+06 -1.975476881544e+06 -1.942942842611e+06 -1.974611209177e+06 -1.941865730807e+06 -1.906662543614e+06 -1.939501631971e+06 -1.973499700160e+06 -1.968757187400e+06 -1.934147427234e+06 -1.903780576869e+06 -1.962669411864e+06 -1.927814507211e+06 -1.904410858079e+06 -1.969786550475e+06 -1.935123273962e+06 -1.973713263098e+06 -1.907224285294e+06 -1.939674686125e+06 -1.976584603808e+06 -1.910172745032e+06 -1.943212070334e+06 -1.978954161936e+06 -1.978520786110e+06 -1.914546510484e+06 -1.948322482014e+06 -1.974343380902e+06 -1.920751468160e+06 -1.954662085452e+06 -1.913431813951e+06 -1.947594686468e+06 -1.909958076232e+06 -1.941725525414e+06 -1.909125094236e+06 -1.937521587708e+06 -1.966838209482e+06 -1.912310809879e+06 -1.939920615040e+06 -1.960288435594e+06 -1.984920689048e+06 -2.012505548017e+06 -1.918083342114e+06 -1.929784558694e+06 -1.957959322849e+06 -1.992072230911e+06 -1.947342194110e+06 -1.980551735902e+06 -1.969622705625e+06 -1.998836697169e+06 -2.011163468134e+06 -2.020509000439e+06 -2.059270980270e+06 -2.099257758072e+06 -2.138728094712e+06 -2.178187962011e+06 -2.177275921050e+06 -2.176614404353e+06 -2.175761698768e+06 -2.175716898784e+06 -2.175733930897e+06 -2.175701802939e+06 -2.175662582206e+06 -2.175716316337e+06 -2.175598463223e+06 -2.175549609041e+06 -2.175789537162e+06 -2.176322515635e+06 -2.176379873816e+06 -2.006260720265e+06 -2.150871511534e+06 -2.145287604483e+06 -2.012604208997e+06 -2.143985794401e+06 -2.146312542885e+06 -2.118537277572e+06 -2.038765950244e+06 -2.111803617335e+06 -2.122466284896e+06 -2.143170053745e+06 -2.115638965374e+06 -2.141307304404e+06 -2.139895059199e+06 -2.141963821649e+06 -2.143713816518e+06 -2.140495419326e+06 -2.145420814807e+06 -2.142062208914e+06 -2.144338824333e+06 -2.142448990194e+06 -2.074293845575e+06 -2.093787981847e+06 -2.025600376577e+06 -2.015500464483e+06 -2.056547742631e+06 -2.011354451408e+06 -2.008976607172e+06 -2.008172681573e+06 -2.009191320456e+06 -2.009667479345e+06 -2.009119182974e+06 -2.008635561788e+06 -2.008663824893e+06 -2.009908503874e+06 -2.013745817555e+06 -2.054947605113e+06 -2.105625091192e+06 -2.078256969811e+06 -2.111253524522e+06 -2.082441486069e+06 -2.046590553338e+06 -2.041603669143e+06 -2.037922597709e+06 -2.076212458361e+06 -2.067881727221e+06 -2.104220820750e+06 -2.037976158071e+06 -2.062821998660e+06 -2.085244070423e+06 -2.107823324483e+06 -2.044143222621e+06 -2.065248690453e+06 -2.082251381189e+06 -2.041857419143e+06 -2.040939459490e+06 -2.039408552527e+06 -2.040169776829e+06 -2.045698976513e+06 -2.083108228826e+06 -2.117049646902e+06 -2.070735042658e+06 -2.097441346352e+06 -2.120986352155e+06 -2.067976323844e+06 -2.087079886700e+06 -2.103499962064e+06 -2.116789781351e+06 -2.121282165758e+06 -2.070932471683e+06 -2.095138227479e+06 -2.100396408669e+06 -2.123977209636e+06 -2.076379216964e+06 -2.109244656610e+06 -2.117122669045e+06 -2.093410393075e+06 -2.071337528919e+06 -2.072922318660e+06 -2.093296977178e+06 -2.115472261407e+06 -2.088611614249e+06 -2.218473390206e+06 -2.256091458723e+06 -2.294915733937e+06 -2.333729375168e+06 -2.372496152312e+06 -2.411311169930e+06 -2.450185914174e+06 -2.488972387259e+06 -2.527245928501e+06 -2.565682762239e+06 -2.564715579435e+06 -2.563910521498e+06 -2.563813604371e+06 -2.563845058274e+06 -2.563957468622e+06 -2.564051490742e+06 -2.564100721684e+06 -2.564140511748e+06 -2.564269268257e+06 -2.564528000141e+06 -2.563863469960e+06 -2.538881537269e+06 -2.204496570103e+06 -2.533101548559e+06 -2.210681343209e+06 -2.507870277934e+06 -2.531357206819e+06 -2.235799830540e+06 -2.533735236717e+06 -2.500234183167e+06 -2.509965239962e+06 -2.530639050426e+06 -2.502280010070e+06 -2.529029253705e+06 -2.529608096075e+06 -2.529346834693e+06 -2.527769060056e+06 -2.525139773354e+06 -2.522702356434e+06 -2.524334413922e+06 -2.464268869236e+06 -2.480656190317e+06 -2.424872923506e+06 -2.384830633372e+06 -2.345495590340e+06 -2.305539611510e+06 -2.262622356751e+06 -2.218733694114e+06 -2.225533118114e+06 -2.211771272547e+06 -2.206831203978e+06 -2.207527017072e+06 -2.209125844450e+06 -2.209858163592e+06 -2.209563929043e+06 -2.209302465606e+06 -2.209830211547e+06 -2.212534416783e+06 -2.277920798324e+06 -2.255674923664e+06 -2.233485146931e+06 -2.236229719623e+06 -2.319779123937e+06 -2.357834401861e+06 -2.398088490991e+06 -2.241122968005e+06 -2.441408460893e+06 -2.470692661302e+06 -2.431595818188e+06 -2.391765651557e+06 -2.352777347493e+06 -2.313932943099e+06 -2.274010579467e+06 -2.251522166759e+06 -2.496798032428e+06 -2.464981086400e+06 -2.244705254889e+06 -2.244521388119e+06 -2.242514887997e+06 -2.242550607580e+06 -2.246003218096e+06 -2.495014198958e+06 -2.454911657912e+06 -2.412364591906e+06 -2.372639118052e+06 -2.334498461116e+06 -2.295836932379e+06 -2.282911580745e+06 -2.276029188192e+06 -2.318737211742e+06 -2.306449662374e+06 -2.354223507883e+06 -2.336654559208e+06 -2.274280157105e+06 -2.301486498688e+06 -2.323579459269e+06 -2.391672703804e+06 -2.369418829170e+06 -2.348153128424e+06 -2.276975697434e+06 -2.302877282777e+06 -2.326560515942e+06 -2.432512911677e+06 -2.405568273091e+06 -2.379714338198e+06 -2.481524360505e+06 -2.487511918502e+06 -2.493369839307e+06 -2.498522595235e+06 -2.445234111148e+06 -2.415164220882e+06 -2.499418838681e+06 -2.496134054480e+06 -2.453624973758e+06 -2.463395570706e+06 -2.472823334615e+06 -2.463394818862e+06 -2.285394066649e+06 -2.353971384387e+06 -2.329947803825e+06 -2.308472049224e+06 -2.384318548289e+06 -2.420151743043e+06 -2.439132202085e+06 -2.354854244714e+06 -2.332454051544e+06 -2.321806185598e+06 -2.379521386824e+06 -2.400221533445e+06 -2.348749315793e+06 -2.365917695756e+06 -2.279592823858e+06 -2.314292615114e+06 -2.338796543390e+06 -2.270254516685e+06 -2.258277117140e+06 -2.457962508095e+06 -2.414004019790e+06 -2.365207128809e+06 -2.333684759290e+06 -2.299428078913e+06 -2.286881044678e+06 -2.326765694085e+06 -2.415871306694e+06 -2.378135001522e+06 -2.344681935874e+06 -2.363183931777e+06 -2.311663402479e+06 -2.606880374163e+06 -2.645263827994e+06 -2.685120720718e+06 -2.725171276464e+06 -2.765130018362e+06 -2.804962745306e+06 -2.844736574326e+06 -2.884398269180e+06 -2.923572539248e+06 -2.960778352666e+06 -2.959502882235e+06 -2.957401465564e+06 -2.956927180147e+06 -2.956892194176e+06 -2.957081205473e+06 -2.957195973542e+06 -2.957362526392e+06 -2.957737443038e+06 -2.959617126309e+06 -2.935659277764e+06 -2.591715392728e+06 -2.931197220599e+06 -2.596725977546e+06 -2.900156143055e+06 -2.905297615406e+06 -2.928174146769e+06 -2.622216325104e+06 -2.930315061866e+06 -2.907677428404e+06 -2.866790767486e+06 -2.879589244081e+06 -2.830914528803e+06 -2.793828922170e+06 -2.756380520281e+06 -2.719924308035e+06 -2.685697955467e+06 -2.651517961905e+06 -2.609097464449e+06 -2.924675517970e+06 -2.896908655506e+06 -2.922847926932e+06 -2.922429897947e+06 -2.920796599306e+06 -2.918858501353e+06 -2.921001188186e+06 -2.599336154835e+06 -2.600622733507e+06 -2.600396492482e+06 -2.599929881062e+06 -2.599688340782e+06 -2.599833997323e+06 -2.600572107218e+06 -2.602780539203e+06 -2.638106675345e+06 -2.667357932809e+06 -2.633324259219e+06 -2.666319560202e+06 -2.632017773516e+06 -2.695145683915e+06 -2.666075369247e+06 -2.631518472260e+06 -2.665342383406e+06 -2.631702467441e+06 -2.632570751309e+06 -2.664980437546e+06 -2.633860336667e+06 -2.665864441053e+06 -2.667887639516e+06 -2.729753617660e+06 -2.768284124002e+06 -2.807733828093e+06 -2.845210047773e+06 -2.861264400718e+06 -2.699994519750e+06 -2.700217179880e+06 -2.698061996029e+06 -2.698123354706e+06 -2.700479138589e+06 -2.634544189345e+06 -2.672162824645e+06 -2.704576765973e+06 -2.632187239056e+06 -2.868419815039e+06 -2.828395875437e+06 -2.788016231296e+06 -2.746915447083e+06 -2.704232738366e+06 -2.661227384686e+06 -2.678809914517e+06 -2.729342264460e+06 -2.713148885148e+06 -2.772151119756e+06 -2.812954758387e+06 -2.853665156574e+06 -2.893178598251e+06 -2.739739844032e+06 -2.732001422512e+06 -2.728468249206e+06 -2.731475925970e+06 -2.784525299006e+06 -2.767781617702e+06 -2.823592473751e+06 -2.804030319273e+06 -2.758254902362e+06 -2.754217202902e+06 -2.788669917299e+06 -2.780909345762e+06 -2.840558357111e+06 -2.819052886297e+06 -2.803975283429e+06 -2.737204450263e+06 -2.772152964810e+06 -2.735916746542e+06 -2.752870894743e+06 -2.795775132853e+06 -2.834425411444e+06 -2.877112350308e+06 -2.880519686775e+06 -2.886533029716e+06 -2.829928667073e+06 -2.887843665227e+06 -2.883889569042e+06 -2.851189088894e+06 -2.826077048590e+06 -2.853768737139e+06 -2.846940905528e+06 -2.827909637076e+06 -2.809694199900e+06 -2.775829995928e+06 -2.804384547151e+06 -2.379460288861e+06 -2.379837972544e+06 -2.380158300376e+06 -2.380314669636e+06 -2.380369681517e+06 -2.380345793112e+06 -2.380305320995e+06 -2.380284353394e+06 -2.380280480954e+06 -2.380284057958e+06 -2.380286496579e+06 -2.380283692958e+06 -2.380276659569e+06 -2.380269546835e+06 -2.380266377900e+06 -2.380268212087e+06 -2.380272092798e+06 -2.380273515457e+06 -2.380270931530e+06 -2.380266792226e+06 -2.380263613028e+06 -2.380259532299e+06 -2.380247023877e+06 -2.380222381802e+06 -2.380212635698e+06 -2.380270799293e+06 -2.380396916539e+06 -2.380513241895e+06 -2.380478027948e+06 -2.379343868984e+06 -2.378553361771e+06 -2.377636080546e+06 -2.335464168910e+06 -2.295991694918e+06 -2.255278688963e+06 -2.215096914426e+06 -2.202715340204e+06 -2.349950183318e+06 -2.208497373653e+06 -2.343427943213e+06 -2.209668123157e+06 -2.207532480171e+06 -2.235580397123e+06 -2.316801123467e+06 -2.242613538003e+06 -2.231831004871e+06 -2.210908884751e+06 -2.238965925092e+06 -2.213126328682e+06 -2.214932278046e+06 -2.214193972811e+06 -2.213972346346e+06 -2.213697296728e+06 -2.213473618264e+06 -2.213324205154e+06 -2.213234948025e+06 -2.213187664489e+06 -2.213168631748e+06 -2.213166430946e+06 -2.213173643483e+06 -2.213185178618e+06 -2.213197591637e+06 -2.213208793020e+06 -2.213215210028e+06 -2.213215184317e+06 -2.212265264932e+06 -2.213180305257e+06 -2.213139678944e+06 -2.213077410339e+06 -2.213004056899e+06 -2.212244161302e+06 -2.214654694966e+06 -2.209439619854e+06 -2.211135884849e+06 -2.280830305902e+06 -2.261122086596e+06 -2.330381553072e+06 -2.340815546433e+06 -2.299090976869e+06 -2.345240003648e+06 -2.347837328079e+06 -2.348549733395e+06 -2.347687709029e+06 -2.346675030096e+06 -2.346120402791e+06 -2.345827614270e+06 -2.345669727855e+06 -2.345585464353e+06 -2.345544228694e+06 -2.345530082726e+06 -2.345532174563e+06 -2.345541879313e+06 -2.345554707456e+06 -2.345568323470e+06 -2.345580442624e+06 -2.345588579329e+06 -2.345590065350e+06 -2.345582216697e+06 -2.345564115882e+06 -2.345542836057e+06 -2.345550301436e+06 -2.345686582385e+06 -2.346184308344e+06 -2.346603520005e+06 -2.345800452037e+06 -2.342121013772e+06 -2.300102121322e+06 -2.248495095143e+06 -2.276541366397e+06 -2.243847187897e+06 -2.272988391330e+06 -2.309568378435e+06 -2.315134100734e+06 -2.319232902656e+06 -2.279948580448e+06 -2.289521735635e+06 -2.317687709739e+06 -2.295745934011e+06 -2.251823155373e+06 -2.272682798559e+06 -2.247605445612e+06 -2.315359819963e+06 -2.282220490040e+06 -2.248761014180e+06 -2.282778951123e+06 -2.248119025295e+06 -2.247622858603e+06 -2.247301907081e+06 -2.314987056847e+06 -2.281832493769e+06 -2.314311829308e+06 -2.281311747158e+06 -2.313952688380e+06 -2.281014181130e+06 -2.313757033368e+06 -2.247111747865e+06 -2.280850983349e+06 -2.312715353746e+06 -2.311727586475e+06 -2.311717495418e+06 -2.311725887784e+06 -2.311742730318e+06 -2.311763835250e+06 -2.311784693557e+06 -2.311800746406e+06 -2.311808017061e+06 -2.311801679771e+06 -2.311778091132e+06 -2.311738659632e+06 -2.311701415441e+06 -2.311733488174e+06 -2.312092779258e+06 -2.313217645456e+06 -2.314180894952e+06 -2.309134363327e+06 -2.270888909376e+06 -2.236368422725e+06 -2.283008371648e+06 -2.255059380237e+06 -2.231514546729e+06 -2.285543422566e+06 -2.266817573818e+06 -2.245105431345e+06 -2.243044504471e+06 -2.264524543225e+06 -2.245546470917e+06 -2.247008253786e+06 -2.279832335092e+06 -2.246959951117e+06 -2.279801342973e+06 -2.246945966210e+06 -2.246010112899e+06 -2.278861818990e+06 -2.277934097158e+06 -2.277953117082e+06 -2.246027701041e+06 -2.246045957154e+06 -2.278915275657e+06 -2.247003292712e+06 -2.246078888396e+06 -2.278934038631e+06 -2.278007828306e+06 -2.278007849417e+06 -2.246082348833e+06 -2.245136297725e+06 -2.277988535681e+06 -2.278889361605e+06 -2.245107923031e+06 -2.246941660029e+06 -2.245927600795e+06 -2.278832507638e+06 -2.277818607705e+06 -2.278660260717e+06 -2.245809430228e+06 -2.277834625278e+06 -2.763382130254e+06 -2.763425784297e+06 -2.763936547993e+06 -2.764178758694e+06 -2.764212419922e+06 -2.764203623218e+06 -2.764161451089e+06 -2.764119289872e+06 -2.764112559284e+06 -2.764115219679e+06 -2.764117025720e+06 -2.764120713826e+06 -2.764128313551e+06 -2.764132497151e+06 -2.764122878189e+06 -2.764107654012e+06 -2.764103528516e+06 -2.764107215617e+06 -2.764110939053e+06 -2.764112802905e+06 -2.764106864046e+06 -2.764099155467e+06 -2.764103015277e+06 -2.764112835132e+06 -2.764119492181e+06 -2.764127081996e+06 -2.764143258190e+06 -2.764170986238e+06 -2.764213538891e+06 -2.764287351506e+06 -2.764312025471e+06 -2.763295454806e+06 -2.762512627418e+06 -2.761594713740e+06 -2.721677222305e+06 -2.684406085974e+06 -2.645943031126e+06 -2.607493640736e+06 -2.569093723091e+06 -2.530647587988e+06 -2.492142356903e+06 -2.453723637877e+06 -2.415811709004e+06 -2.404282228811e+06 -2.735489924954e+06 -2.409971284541e+06 -2.729320523410e+06 -2.434990978098e+06 -2.411720007938e+06 -2.704436234678e+06 -2.409369975077e+06 -2.442438600845e+06 -2.432807697495e+06 -2.412602546964e+06 -2.440406535111e+06 -2.414724786189e+06 -2.414835970399e+06 -2.415011049986e+06 -2.414768672259e+06 -2.414560079787e+06 -2.414569439982e+06 -2.414727666258e+06 -2.414885138120e+06 -2.414929133855e+06 -2.414839691295e+06 -2.414683772115e+06 -2.414561541082e+06 -2.414540464172e+06 -2.414608051819e+06 -2.414674644664e+06 -2.414658348027e+06 -2.414573351485e+06 -2.414495350394e+06 -2.414453344956e+06 -2.414362190204e+06 -2.414026605809e+06 -2.413446119010e+06 -2.413457539715e+06 -2.415007273416e+06 -2.417667264394e+06 -2.420164316189e+06 -2.418624589580e+06 -2.477889547465e+06 -2.461565027228e+06 -2.516844799040e+06 -2.556676031558e+06 -2.595745354310e+06 -2.635217056843e+06 -2.677660246245e+06 -2.721269394358e+06 -2.714048023987e+06 -2.727338622188e+06 -2.732454573825e+06 -2.732219733970e+06 -2.730506660125e+06 -2.728980918651e+06 -2.728742059028e+06 -2.729295581676e+06 -2.729776142489e+06 -2.730024535299e+06 -2.730261188500e+06 -2.730594198437e+06 -2.730750705005e+06 -2.730373307718e+06 -2.729844466851e+06 -2.729747537497e+06 -2.729896573614e+06 -2.730039583976e+06 -2.730105114421e+06 -2.729866067601e+06 -2.729604839307e+06 -2.729777499867e+06 -2.730103319259e+06 -2.730264132657e+06 -2.730395941600e+06 -2.730683621632e+06 -2.730995464777e+06 -2.730929131283e+06 -2.730209285922e+06 -2.727469708249e+06 -2.662076435827e+06 -2.682537184870e+06 -2.704535187586e+06 -2.702996390242e+06 -2.621117517860e+06 -2.583609009404e+06 -2.543076087370e+06 -2.699643464768e+06 -2.499828582106e+06 -2.471795345968e+06 -2.510489355173e+06 -2.549904281284e+06 -2.588492660794e+06 -2.626961749038e+06 -2.666533823510e+06 -2.688753472028e+06 -2.446257917878e+06 -2.476663355288e+06 -2.694330442398e+06 -2.691901535592e+06 -2.693466324271e+06 -2.695052617165e+06 -2.695707868148e+06 -2.696009689939e+06 -2.696747587928e+06 -2.697838404176e+06 -2.697952661128e+06 -2.696037739707e+06 -2.694984608760e+06 -2.695598166156e+06 -2.695840241166e+06 -2.696225257611e+06 -2.696391304735e+06 -2.695106499308e+06 -2.694771666691e+06 -2.695995067914e+06 -2.696506747576e+06 -2.696536198494e+06 -2.696848122902e+06 -2.697833971798e+06 -2.698572885602e+06 -2.697897535507e+06 -2.694243509456e+06 -2.447666916782e+06 -2.487322033990e+06 -2.529389448423e+06 -2.568679378073e+06 -2.606434156161e+06 -2.644762327789e+06 -2.657507435298e+06 -2.664433141763e+06 -2.621902881221e+06 -2.634006867526e+06 -2.586706406101e+06 -2.603883988690e+06 -2.666646316763e+06 -2.638981056948e+06 -2.616734125140e+06 -2.549627137016e+06 -2.571274942586e+06 -2.591940795923e+06 -2.665565772709e+06 -2.637867629903e+06 -2.613335824571e+06 -2.662556607303e+06 -2.662197014513e+06 -2.663086429539e+06 -2.663145877643e+06 -2.661708240741e+06 -2.657434908264e+06 -2.663539481103e+06 -2.663705400618e+06 -2.661563655234e+06 -2.661815668072e+06 -2.661365582802e+06 -2.658435437583e+06 -2.665888631335e+06 -2.667324455016e+06 -2.664288116829e+06 -2.661885233790e+06 -2.661419218306e+06 -2.661558614076e+06 -2.659908351073e+06 -2.655440105667e+06 -2.509237825017e+06 -2.535409353551e+06 -2.560211834030e+06 -2.584809244128e+06 -2.608672295545e+06 -2.633399214343e+06 -2.651310029260e+06 -2.460835865246e+06 -2.454655707034e+06 -2.448634613290e+06 -2.443432718376e+06 -2.496214157076e+06 -2.524991505623e+06 -2.553744673175e+06 -2.580452899551e+06 -2.601911742864e+06 -2.442516964732e+06 -2.444504157006e+06 -2.445579891197e+06 -2.445752108052e+06 -2.445774074313e+06 -2.445929485913e+06 -2.446212071247e+06 -2.446400960960e+06 -2.446298953115e+06 -2.446040935109e+06 -2.445945657221e+06 -2.446155547867e+06 -2.446567706080e+06 -2.446932460924e+06 -2.447002428085e+06 -2.446704816653e+06 -2.446217989687e+06 -2.445901866684e+06 -2.446113006118e+06 -2.446909056086e+06 -2.447477876700e+06 -2.447587284821e+06 -2.487290248326e+06 -2.477235937484e+06 -2.467878141409e+06 -2.476160300503e+06 -2.518478873866e+06 -2.500009481244e+06 -2.554893710141e+06 -2.578081305377e+06 -2.536986184343e+06 -2.565210510558e+06 -2.480066424082e+06 -2.479900643263e+06 -2.479594726484e+06 -2.479690769937e+06 -2.480258111537e+06 -2.481025728127e+06 -2.481220990604e+06 -2.480556847486e+06 -2.479939973572e+06 -2.480067115837e+06 -2.480850158862e+06 -2.481855203335e+06 -2.482438617812e+06 -2.482171707145e+06 -2.481159650564e+06 -2.480015986452e+06 -2.479577380111e+06 -2.480564939810e+06 -2.483179610923e+06 -2.484270783331e+06 -2.483226604208e+06 -2.524446052215e+06 -2.576734245965e+06 -2.608099711531e+06 -2.640840756015e+06 -2.664666351582e+06 -2.673210784422e+06 -2.676929396016e+06 -2.650538093564e+06 -2.655138160122e+06 -2.616630453618e+06 -2.645376641016e+06 -2.629656002459e+06 -2.597132289408e+06 -2.560128298899e+06 -2.522687735269e+06 -2.525355196040e+06 -2.516261266368e+06 -2.513199837976e+06 -2.513471874301e+06 -2.515658921170e+06 -2.518267741943e+06 -2.519736529266e+06 -2.519320945842e+06 -2.517366720394e+06 -2.515279000161e+06 -2.514261223100e+06 -2.514740557054e+06 -2.517125149305e+06 -2.517964348820e+06 -2.516048646094e+06 -2.514434933813e+06 -2.513777555146e+06 -2.514161280007e+06 -2.515821509495e+06 -2.615691441073e+06 -2.584587459536e+06 -2.555422734939e+06 -2.632812334432e+06 -2.602470642698e+06 -2.578191653149e+06 -2.561970329854e+06 -2.548400246187e+06 -2.542875618239e+06 -2.542724378797e+06 -2.545204843915e+06 -2.551666570670e+06 -2.555960319780e+06 -2.557011660901e+06 -2.554299653949e+06 -2.549369596694e+06 -2.546426477861e+06 -2.545693878695e+06 -2.547650719032e+06 -2.556582748502e+06 -2.551457182644e+06 -2.547530895326e+06 -2.545557725364e+06 -2.545294300098e+06 -2.546651522126e+06 -2.588359473575e+06 -2.575255212137e+06 -2.568323835847e+06 -2.567806857710e+06 -2.571362197551e+06 -2.614832689395e+06 -2.595793374746e+06 -2.588275157264e+06 -2.614706900456e+06 -2.627385238647e+06 -2.586692699897e+06 -2.594644808880e+06 -2.631935695965e+06 -2.601490050669e+06 -2.630337735880e+06 -2.606657790361e+06 -2.578112130700e+06 -2.592625901885e+06 -2.629282978943e+06 -2.594899124158e+06 -2.632345582247e+06 -2.597979061227e+06 -2.584911713828e+06 -2.638659969572e+06 -2.619432883303e+06 -2.646303070175e+06 -2.578474774562e+06 -2.609569055818e+06 -2.638642793754e+06 -2.575897777229e+06 -2.604498850844e+06 -2.628821825851e+06 -2.631421402184e+06 -2.603787782092e+06 -2.575469683739e+06 -2.631930414502e+06 -2.602511202345e+06 -2.575589319200e+06 -2.630298233263e+06 -2.596625472891e+06 -2.588782936163e+06 -2.581029653038e+06 -2.576771694209e+06 -2.575517643487e+06 -2.576072693155e+06 -2.628720972414e+06 -2.614696562311e+06 -2.642502091492e+06 -2.606930842835e+06 -2.635876250889e+06 -2.603597155886e+06 -2.627397733380e+06 -2.631342832405e+06 -2.604429847334e+06 -2.633374084155e+06 -2.605327834380e+06 -2.577586974827e+06 -2.633710303644e+06 -2.603388835297e+06 -2.631017127179e+06 -2.624971332190e+06 -2.588721568133e+06 -2.597412096562e+06 -2.550875866462e+06 -2.578552374043e+06 -2.518879631266e+06 -2.563752728922e+06 -2.960274616651e+06 -2.959658395117e+06 -2.959363939108e+06 -2.959502143579e+06 -2.959566715629e+06 -2.959564057651e+06 -2.959525739876e+06 -2.959487866486e+06 -2.959463305421e+06 -2.959449725396e+06 -2.959442787295e+06 -2.959439335187e+06 -2.959437549184e+06 -2.959436526765e+06 -2.959435873624e+06 -2.959435418173e+06 -2.959435070320e+06 -2.959434776593e+06 -2.959434509838e+06 -2.959434262138e+06 -2.959434039793e+06 -2.959433869624e+06 -2.959433825417e+06 -2.959434078265e+06 -2.959434954317e+06 -2.959436930963e+06 -2.959440400514e+06 -2.959444779707e+06 -2.959445800694e+06 -2.959428146744e+06 -2.959354889531e+06 -2.959259056353e+06 -2.957410115175e+06 -2.957945147559e+06 -2.957408629194e+06 -2.918345793441e+06 -2.879748754292e+06 -2.840030111410e+06 -2.800832579805e+06 -2.932159676087e+06 -2.788931352058e+06 -2.794276855320e+06 -2.925092950775e+06 -2.796416786542e+06 -2.793221265303e+06 -2.820843885464e+06 -2.899222173940e+06 -2.827561410581e+06 -2.816921189752e+06 -2.796272147033e+06 -2.823630083558e+06 -2.798000721448e+06 -2.799504937621e+06 -2.800118483007e+06 -2.800938304523e+06 -2.799255599569e+06 -2.798722556269e+06 -2.798430282604e+06 -2.798284290282e+06 -2.798214065252e+06 -2.798179220212e+06 -2.798159799393e+06 -2.798147397638e+06 -2.798138772908e+06 -2.798132363075e+06 -2.798127138380e+06 -2.798122495890e+06 -2.798118252957e+06 -2.798114582001e+06 -2.798112098855e+06 -2.798112312756e+06 -2.798118622626e+06 -2.798138112366e+06 -2.798184728130e+06 -2.798285456304e+06 -2.798499814674e+06 -2.798974674227e+06 -2.800072397374e+06 -2.802348821863e+06 -2.802244306726e+06 -2.864854512610e+06 -2.845403001671e+06 -2.913296101821e+06 -2.923286369068e+06 -2.882425946897e+06 -2.927357832580e+06 -2.929723636151e+06 -2.930774720196e+06 -2.930635010510e+06 -2.929915243404e+06 -2.929246710444e+06 -2.928824055167e+06 -2.928593134857e+06 -2.928475864989e+06 -2.928417588556e+06 -2.928387293174e+06 -2.928369791541e+06 -2.928358514167e+06 -2.928350594009e+06 -2.928344500788e+06 -2.928339322154e+06 -2.928334603932e+06 -2.928330228279e+06 -2.928326335415e+06 -2.928323458839e+06 -2.928323028128e+06 -2.928328287262e+06 -2.928345291801e+06 -2.928382677018e+06 -2.928447004285e+06 -2.928525596581e+06 -2.928534337865e+06 -2.928176129497e+06 -2.926749101401e+06 -2.923072108618e+06 -2.880306844985e+06 -2.833687761693e+06 -2.860022241946e+06 -2.827783465182e+06 -2.856555242670e+06 -2.892205086761e+06 -2.896998456579e+06 -2.900576073806e+06 -2.862460312903e+06 -2.870238533901e+06 -2.834166271247e+06 -2.901157545700e+06 -2.874463205280e+06 -2.851838236335e+06 -2.829231644294e+06 -2.899468391879e+06 -2.872028876345e+06 -2.852002221261e+06 -2.837505627021e+06 -2.897706346292e+06 -2.895749984613e+06 -2.895119345276e+06 -2.894800443049e+06 -2.894651734531e+06 -2.894573965153e+06 -2.894532811360e+06 -2.894508213228e+06 -2.894491826158e+06 -2.894479992331e+06 -2.894470654435e+06 -2.894462572295e+06 -2.894455193213e+06 -2.894448523260e+06 -2.894443139331e+06 -2.894440648175e+06 -2.894444789969e+06 -2.894463124860e+06 -2.894511060300e+06 -2.894601270662e+06 -2.895659186814e+06 -2.894948499510e+06 -2.895034086721e+06 -2.894221978966e+06 -2.887766820707e+06 -2.841563887703e+06 -2.862705507261e+06 -2.832842979022e+06 -2.862401257526e+06 -2.831043836618e+06 -2.861562515309e+06 -2.830120829609e+06 -2.861986638488e+06 -2.829704282969e+06 -2.828586491245e+06 -2.861711249112e+06 -2.859738559442e+06 -2.828484809855e+06 -2.860574718920e+06 -2.829353864306e+06 -2.860539505652e+06 -2.829334968610e+06 -2.860526883004e+06 -2.829329993057e+06 -2.860525530294e+06 -2.829331623807e+06 -2.860529469022e+06 -2.829336285182e+06 -2.860535825318e+06 -2.829342349388e+06 -2.860543350863e+06 -2.829349177740e+06 -2.860551685798e+06 -2.829356782989e+06 -2.860561194809e+06 -2.829365845523e+06 -2.860573012231e+06 -2.829377682673e+06 -2.860588953947e+06 -2.829394154035e+06 -2.860611845318e+06 -2.829418695078e+06 -2.860648139140e+06 -2.829460450429e+06 -2.860714743010e+06 -2.828622082338e+06 -2.859922599830e+06 -2.861117082703e+06 -2.828786599179e+06 -2.830069980895e+06 -2.861704371701e+06 -2.830780067582e+06 -2.864604244758e+06 -2.834038293931e+06 -2.868514499635e+06 -1.753871670531e+06 -1.771584416715e+06 -1.763214769105e+06 -1.761349458091e+06 -1.743891974264e+06 -1.762685848976e+06 -1.726259225539e+06 -1.727289459461e+06 -1.721506679582e+06 -1.704318301958e+06 -1.646076039267e+06 -1.636617514674e+06 -1.627921545405e+06 -1.541065358153e+06 -1.534149915654e+06 -1.522558556123e+06 -1.468394035010e+06 -1.460939554619e+06 -1.450264797587e+06 -1.396856863776e+06 -1.394984752687e+06 -1.384602559047e+06 -1.375901918073e+06 -1.375192217006e+06 -1.375575068948e+06 -1.365360148582e+06 -1.395078827532e+06 -1.378934136603e+06 -1.388079191863e+06 -1.375402604105e+06 -1.367946919353e+06 -1.386215042800e+06 -1.403960723058e+06 -1.404017435746e+06 -1.414256503658e+06 -1.432604398326e+06 -1.425214259363e+06 -1.439944905094e+06 -1.423853312458e+06 -1.441590491853e+06 -1.405890495743e+06 -1.415163982985e+06 -1.433535234744e+06 -1.423193825378e+06 -1.473485849093e+06 -1.453728609841e+06 -1.462645388563e+06 -1.445201649923e+06 -1.461483081394e+06 -1.479220260978e+06 -1.475866407598e+06 -1.486039427400e+06 -1.504894574224e+06 -1.497325226337e+06 -1.511807632657e+06 -1.499112850717e+06 -1.516850030425e+06 -1.484552308849e+06 -1.493645676890e+06 -1.511328422455e+06 -1.500930281094e+06 -1.547610258657e+06 -1.531322826145e+06 -1.535506787052e+06 -1.523843313886e+06 -1.536742620277e+06 -1.554479800098e+06 -1.547739013080e+06 -1.558725495755e+06 -1.575980801445e+06 -1.569362917084e+06 -1.583636405340e+06 -1.593625651943e+06 -1.610277450228e+06 -1.602573745382e+06 -1.619518241250e+06 -1.610291793090e+06 -1.628004539194e+06 -1.600850059651e+06 -1.592109569929e+06 -1.574372390031e+06 -1.563092622362e+06 -1.567432204903e+06 -1.582974881915e+06 -1.567423479153e+06 -1.600991576223e+06 -1.605073292750e+06 -1.623055687599e+06 -1.662171107745e+06 -1.640708659833e+06 -1.648821442182e+06 -1.636566581473e+06 -1.646186762391e+06 -1.663899508535e+06 -1.655441865564e+06 -1.663720716087e+06 -1.686593697810e+06 -1.676666082188e+06 -1.691493062164e+06 -1.682081731721e+06 -1.699794477879e+06 -1.672543690634e+06 -1.680674233253e+06 -1.698058020783e+06 -1.688358823552e+06 -1.733075497080e+06 -1.716412266389e+06 -1.723150466664e+06 -1.708405838087e+06 -1.717976701102e+06 -1.735689447284e+06 -1.744247027925e+06 -1.751402238862e+06 -1.768477451643e+06 -1.757672525312e+06 -1.840834568146e+06 -1.822904428102e+06 -1.829864075578e+06 -1.911524125877e+06 -1.895109752140e+06 -1.901083153718e+06 -1.977558220422e+06 -1.962886444079e+06 -1.962865950778e+06 -2.065240051849e+06 -2.041496783418e+06 -2.050313117783e+06 -2.141019571220e+06 -2.124559219146e+06 -2.128949261164e+06 -2.258106295861e+06 -2.236496396658e+06 -2.240772909298e+06 -2.338323695494e+06 -2.318813359623e+06 -2.325736015625e+06 -2.416740402630e+06 -2.397252775763e+06 -2.405005001559e+06 -2.493366404149e+06 -2.475627971474e+06 -2.482596254520e+06 -2.564107578464e+06 -2.548704405328e+06 -2.548698734628e+06 -2.582246900656e+06 -2.582088535945e+06 -2.586477786132e+06 -2.604585457542e+06 -2.678895379489e+06 -2.662083958972e+06 -2.668722332539e+06 -2.750330148534e+06 -2.732543043806e+06 -2.738333158578e+06 -2.823664294182e+06 -2.805594565683e+06 -2.812547942575e+06 -2.894583886655e+06 -2.878121244116e+06 -2.883791791911e+06 -2.960260734965e+06 -2.943207877180e+06 -2.943043616806e+06 -2.960433768824e+06 -2.946365745492e+06 -2.946329203466e+06 -2.928171452266e+06 -2.912909119606e+06 -2.916051224696e+06 -2.907000875333e+06 -2.923198753117e+06 -2.905369243639e+06 -2.941230400476e+06 -2.960163456116e+06 -2.941292921594e+06 -2.936862897099e+06 -2.917001265459e+06 -2.873887787440e+06 -2.897507351107e+06 -2.888711756758e+06 -2.901830873620e+06 -2.885360119599e+06 -2.867530610146e+06 -2.870922373257e+06 -2.859678576107e+06 -2.842171511467e+06 -2.849021783189e+06 -2.834813509101e+06 -2.847521486105e+06 -2.829691976658e+06 -2.862143889563e+06 -2.853489821283e+06 -2.835033212881e+06 -2.845901081824e+06 -2.798535732617e+06 -2.814897968797e+06 -2.810517928902e+06 -2.822603030273e+06 -2.809682852603e+06 -2.791853343149e+06 -2.798688708760e+06 -2.787071797081e+06 -2.768828981038e+06 -2.775294305531e+06 -2.762559395119e+06 -2.771844219110e+06 -2.754014709662e+06 -2.783123586814e+06 -2.778599828476e+06 -2.763090485855e+06 -2.778599721336e+06 -2.743932620118e+06 -2.741758841657e+06 -2.722543694122e+06 -2.744010142197e+06 -2.734603450780e+06 -2.716782482274e+06 -2.726443408045e+06 -2.714096959881e+06 -2.697324859596e+06 -2.702935171588e+06 -2.690356126801e+06 -2.697371223379e+06 -2.679550254841e+06 -2.705877961655e+06 -2.703749209710e+06 -2.682283603420e+06 -2.699371823261e+06 -2.641885587593e+06 -2.662548069052e+06 -2.656113013843e+06 -2.667450474578e+06 -2.660138995968e+06 -2.642318027462e+06 -2.654267043503e+06 -2.643505708535e+06 -2.622342954854e+06 -2.630209994811e+06 -2.618054743702e+06 -2.622906768562e+06 -2.605085800051e+06 -2.629044093569e+06 -2.622175240257e+06 -2.602899268985e+06 -2.615270776604e+06 -2.525093300906e+06 -2.544468566349e+06 -2.536610371308e+06 -2.432820943426e+06 -2.451748941172e+06 -2.437005233351e+06 -2.379213044876e+06 -2.394526836461e+06 -2.394534184695e+06 -2.295864640776e+06 -2.315844781036e+06 -2.318701830022e+06 -2.212821664246e+06 -2.229592553262e+06 -2.225143797556e+06 -2.082863051355e+06 -2.100614622095e+06 -2.086772858332e+06 -2.007136348359e+06 -2.024887919129e+06 -2.014913139677e+06 -1.933393836424e+06 -1.951117848962e+06 -1.943048826563e+06 -1.861580399094e+06 -1.879304411607e+06 -1.871129138680e+06 -1.814071725130e+06 -1.829500708780e+06 -1.826303748199e+06 -1.835199986403e+06 -1.847761773192e+06 -1.864650214199e+06 -1.859172109850e+06 -1.883025679269e+06 -1.900987175854e+06 -1.894864957596e+06 -1.907089062527e+06 -1.919397200722e+06 -1.937364461826e+06 -1.931707948414e+06 -1.955744739858e+06 -1.973076141362e+06 -1.967850386887e+06 -1.978990361373e+06 -1.991417270362e+06 -2.008075863479e+06 -2.002593402831e+06 -2.026408813190e+06 -2.042837490392e+06 -2.036395141808e+06 -2.050830165656e+06 -2.061218938525e+06 -2.078527324291e+06 -2.070851585528e+06 -2.097071628966e+06 -2.118583207637e+06 -2.110357805620e+06 -2.122834113988e+06 -2.136279113524e+06 -2.158480610882e+06 -2.154304556724e+06 -2.176551623321e+06 -2.158636528420e+06 -2.192414356609e+06 -2.192416294066e+06 -2.197044117943e+06 -2.176877528577e+06 -2.196865210245e+06 -2.196238364046e+06 -2.216544926918e+06 -2.236525067193e+06 -2.237505299913e+06 -2.250202695360e+06 -2.269115150328e+06 -2.261405409533e+06 -2.278029266915e+06 -2.289992584849e+06 -2.314155683237e+06 -2.305232080638e+06 -2.334107982924e+06 -2.358913614117e+06 -2.354437339002e+06 -2.359078957316e+06 -2.350568490262e+06 -2.370517822785e+06 -2.365943558838e+06 -2.378885947995e+06 -2.374680674108e+06 -2.383948624397e+06 -2.402607551292e+06 -2.398701702144e+06 -2.413849838020e+06 -2.429805806336e+06 -2.425808303823e+06 -2.449299114087e+06 -2.466787652554e+06 -2.459830561608e+06 -2.475354204442e+06 -2.486426660608e+06 -2.505386472499e+06 -2.497194983475e+06 -2.513745608821e+06 -2.509946188658e+06 -2.528874186412e+06 -2.536882498541e+06 -2.540736261497e+06 -2.552096967455e+06 -2.559771766104e+06 -2.564164317613e+06 -2.583221180562e+06 -2.576055489773e+06 -2.590676340082e+06 -2.585674541143e+06 -2.567585759128e+06 -2.555772162392e+06 -2.544501219147e+06 -2.529197664394e+06 -2.513046275923e+06 -2.517071830725e+06 -2.505676631859e+06 -2.490311563777e+06 -2.471383566030e+06 -2.466968555705e+06 -2.455803153136e+06 -2.436627574981e+06 -2.444747025059e+06 -2.428219064483e+06 -2.413243534207e+06 -2.398320632824e+06 -2.389575448957e+06 -2.377378426494e+06 -2.358185489097e+06 -2.365327579915e+06 -2.350997196099e+06 -2.346588752509e+06 -2.335276834218e+06 -2.312456815592e+06 -2.298916839465e+06 -2.278023874880e+06 -2.284411660340e+06 -2.273630298041e+06 -2.276184924149e+06 -2.256204783889e+06 -2.234785142574e+06 -2.217528240405e+06 -2.196010497919e+06 -2.198132688434e+06 -2.176676240764e+06 -2.161065681027e+06 -2.161064890149e+06 -2.156775938579e+06 -2.156701858949e+06 -2.139004506988e+06 -2.120726402858e+06 -2.116584585385e+06 -2.104313224120e+06 -2.085749627243e+06 -2.093357931371e+06 -2.076830843672e+06 -2.062751270618e+06 -2.044999699887e+06 -2.036930506332e+06 -2.021896071862e+06 -1.997489831684e+06 -2.001925207738e+06 -1.997319545218e+06 -1.987024567624e+06 -1.969300555112e+06 -1.959342291201e+06 -1.944822593205e+06 -1.929732136262e+06 -1.933126239591e+06 -1.923547734179e+06 -1.915211130292e+06 -1.897487117773e+06 -1.887713900738e+06 -1.876778703895e+06 -1.859223752421e+06 -1.866285156701e+06 -1.851847061845e+06 -1.843397692992e+06 -1.825673680485e+06 -1.815969707480e+06 -1.807490974368e+06 -1.804519000578e+06 -1.786829458833e+06 -1.793309362190e+06 -1.780099479894e+06 -1.789766961869e+06 -1.799313697633e+06 -1.795954075822e+06 -1.781095645187e+06 -1.795978173886e+06 -1.713032432187e+06 -1.708381050545e+06 -1.703935744258e+06 -1.691442857405e+06 -1.695401208339e+06 -1.686918843561e+06 -1.698243863319e+06 -1.695560933360e+06 -1.689073339100e+06 -1.659863756548e+06 -1.654952626082e+06 -1.650756175876e+06 -1.609907063831e+06 -1.612103727058e+06 -1.620690064374e+06 -1.623971308594e+06 -1.619090006319e+06 -1.614862885300e+06 -1.588893733602e+06 -1.584781913411e+06 -1.579763573564e+06 -1.575154040623e+06 -1.570958995992e+06 -1.567372016629e+06 -1.562331343147e+06 -1.535544081155e+06 -1.531812253541e+06 -1.526290680129e+06 -1.499490537830e+06 -1.495466165119e+06 -1.490062964392e+06 -1.463274586309e+06 -1.459339272049e+06 -1.454209967579e+06 -1.427417524924e+06 -1.423437374385e+06 -1.418243577527e+06 -1.391623347290e+06 -1.390862786906e+06 -1.385569709195e+06 -1.381218643771e+06 -1.380521900117e+06 -1.380792117650e+06 -1.375696942627e+06 -1.382187316275e+06 -1.380639562230e+06 -1.377002809440e+06 -1.390175282419e+06 -1.386902628760e+06 -1.429058588390e+06 -1.419741987555e+06 -1.424086546746e+06 -1.468705264609e+06 -1.458685793844e+06 -1.463345164319e+06 -1.507347499768e+06 -1.498380189334e+06 -1.502229003891e+06 -1.545200387768e+06 -1.536941158066e+06 -1.539227718640e+06 -1.555349994820e+06 -1.557995666926e+06 -1.565411303348e+06 -1.553247061552e+06 -1.568655488016e+06 -1.563874397792e+06 -1.558656458398e+06 -1.549357873216e+06 -1.546150904216e+06 -1.550927337251e+06 -1.542444972566e+06 -1.540472558392e+06 -1.530209497783e+06 -1.526220621598e+06 -1.520186461713e+06 -1.533688874672e+06 -1.527642572875e+06 -1.517623725240e+06 -1.521772511794e+06 -1.513997753134e+06 -1.510887876561e+06 -1.508545141059e+06 -1.514185807576e+06 -1.505703442935e+06 -1.501978555306e+06 -1.491763507708e+06 -1.488566845610e+06 -1.481716465238e+06 -1.494397869564e+06 -1.489081604176e+06 -1.479084369061e+06 -1.483998237450e+06 -1.474706748127e+06 -1.472417880150e+06 -1.470939378160e+06 -1.477444278131e+06 -1.468961913558e+06 -1.463484552443e+06 -1.453317517888e+06 -1.450913069895e+06 -1.443246468998e+06 -1.455047210612e+06 -1.449387208702e+06 -1.439381759059e+06 -1.444004832599e+06 -1.435356089249e+06 -1.433947883969e+06 -1.433333615608e+06 -1.440702749099e+06 -1.432220384653e+06 -1.424990549830e+06 -1.414871528292e+06 -1.413259294548e+06 -1.404776472897e+06 -1.415736056464e+06 -1.410443402413e+06 -1.400449490512e+06 -1.405481002282e+06 -1.396044934975e+06 -1.395477887794e+06 -1.395727853300e+06 -1.403961220753e+06 -1.395478856491e+06 -1.386214558556e+06 -1.380640019418e+06 -1.380499516176e+06 -1.375508053251e+06 -1.386215527317e+06 -1.395535071773e+06 -1.400280924828e+06 -1.409414870408e+06 -1.405437098663e+06 -1.412998762300e+06 -1.412693052912e+06 -1.422740068164e+06 -1.431462540727e+06 -1.436247313581e+06 -1.445382341005e+06 -1.441442840374e+06 -1.448926232126e+06 -1.449458587933e+06 -1.459529609868e+06 -1.467384043056e+06 -1.472100310023e+06 -1.481233434720e+06 -1.477226569826e+06 -1.484847734796e+06 -1.486224123562e+06 -1.496319152131e+06 -1.503325268032e+06 -1.508328025618e+06 -1.517469108451e+06 -1.513743959255e+06 -1.520788959912e+06 -1.522989659554e+06 -1.533108694677e+06 -1.539256648386e+06 -1.544368688497e+06 -1.553512807036e+06 -1.549895118915e+06 -1.556720340377e+06 -1.559755195777e+06 -1.569898237419e+06 -1.579186502385e+06 -1.583756667514e+06 -1.587668867111e+06 -1.596520732158e+06 -1.592617732710e+06 -1.597726228265e+06 -1.606052127419e+06 -1.601988128125e+06 -1.611035876512e+06 -1.605857030718e+06 -1.615097282733e+06 -1.600697424530e+06 -1.605391111541e+06 -1.596295705625e+06 -1.592382224016e+06 -1.587827870013e+06 -1.578966561648e+06 -1.572938183164e+06 -1.574709888574e+06 -1.582974898819e+06 -1.574882469732e+06 -1.592372337840e+06 -1.592471942085e+06 -1.600840173469e+06 -1.609816003260e+06 -1.614846147134e+06 -1.623707882840e+06 -1.619652064092e+06 -1.623579647475e+06 -1.632431085195e+06 -1.628499568624e+06 -1.632825540059e+06 -1.641902786999e+06 -1.637023338438e+06 -1.646959500807e+06 -1.641766956460e+06 -1.651008063134e+06 -1.636591966496e+06 -1.641271551715e+06 -1.632175718460e+06 -1.627600637861e+06 -1.629457427355e+06 -1.631792103540e+06 -1.638621951587e+06 -1.657973658184e+06 -1.647089787234e+06 -1.651218389958e+06 -1.645532525085e+06 -1.650725732659e+06 -1.659587895706e+06 -1.655547460757e+06 -1.659490427896e+06 -1.668341438322e+06 -1.664423192954e+06 -1.668718830614e+06 -1.680155321488e+06 -1.675105715274e+06 -1.683010697405e+06 -1.677676882238e+06 -1.672486508508e+06 -1.677151991936e+06 -1.668055731339e+06 -1.663577747010e+06 -1.667514562624e+06 -1.671840135546e+06 -1.676622846842e+06 -1.693906482828e+06 -1.685090682493e+06 -1.689128133446e+06 -1.681509634262e+06 -1.686605318229e+06 -1.695467908608e+06 -1.699439894461e+06 -1.703329943819e+06 -1.707611590500e+06 -1.712439468883e+06 -1.738736651052e+06 -1.742603421295e+06 -1.747857895826e+06 -1.774362969433e+06 -1.778014202532e+06 -1.783490302825e+06 -1.810329634468e+06 -1.814074260426e+06 -1.819454329665e+06 -1.846435272193e+06 -1.850399435440e+06 -1.855553765740e+06 -1.882335857332e+06 -1.886333433243e+06 -1.891453407040e+06 -1.917592835113e+06 -1.921039626157e+06 -1.926725943721e+06 -1.952083923760e+06 -1.954284738286e+06 -1.961252229436e+06 -2.029055856624e+06 -2.031600012901e+06 -2.039235829766e+06 -2.071269363903e+06 -2.075975053816e+06 -2.081388276776e+06 -2.110624255422e+06 -2.114896735375e+06 -2.120755405856e+06 -2.148776522630e+06 -2.151524179794e+06 -2.158950747166e+06 -2.225604393490e+06 -2.226986144576e+06 -2.235537702784e+06 -2.265792172854e+06 -2.268482437765e+06 -2.275688518484e+06 -2.305616513314e+06 -2.309285401358e+06 -2.315485214210e+06 -2.344690618540e+06 -2.348657146966e+06 -2.354550911519e+06 -2.383594829237e+06 -2.387704786094e+06 -2.393451070593e+06 -2.422670183701e+06 -2.427078914812e+06 -2.432517985093e+06 -2.461578703618e+06 -2.466134774543e+06 -2.471422342859e+06 -2.499679628942e+06 -2.503649992306e+06 -2.509539813605e+06 -2.563310702928e+06 -2.557911225584e+06 -2.561609211589e+06 -2.545925306817e+06 -2.540961484742e+06 -2.550109892196e+06 -2.536864825751e+06 -2.539418281837e+06 -2.546765036019e+06 -2.610970202858e+06 -2.613381314875e+06 -2.620196438225e+06 -2.649039267157e+06 -2.653226851148e+06 -2.658215319699e+06 -2.684705610650e+06 -2.688488735498e+06 -2.693893088593e+06 -2.734359708323e+06 -2.733170981118e+06 -2.723931801435e+06 -2.720336814004e+06 -2.723683583233e+06 -2.729536618378e+06 -2.756527781291e+06 -2.759946288322e+06 -2.765725559164e+06 -2.771085824016e+06 -2.774251988053e+06 -2.783503129610e+06 -2.777723648236e+06 -2.819857601875e+06 -2.810694132410e+06 -2.814398152247e+06 -2.855928677975e+06 -2.847050524484e+06 -2.850692296665e+06 -2.891452481360e+06 -2.883104129444e+06 -2.886125293576e+06 -2.926320111555e+06 -2.918580854721e+06 -2.920328407828e+06 -2.909890301433e+06 -2.907350637308e+06 -2.899766356823e+06 -2.867904131220e+06 -2.863211241288e+06 -2.857841012188e+06 -2.828767393752e+06 -2.824507686216e+06 -2.818692037949e+06 -2.777564722154e+06 -2.782402765305e+06 -2.787621713705e+06 -2.800226273560e+06 -2.795452660158e+06 -2.803979089059e+06 -2.805905717401e+06 -2.796975012709e+06 -2.793027079884e+06 -2.790828264806e+06 -2.788088799655e+06 -2.780709964293e+06 -2.801041544668e+06 -2.809338738915e+06 -2.806958475788e+06 -2.812699537193e+06 -2.816230225760e+06 -2.820265718504e+06 -2.826311537031e+06 -2.838040587361e+06 -2.832391464426e+06 -2.840917893319e+06 -2.844619860445e+06 -2.835664836052e+06 -2.832506523347e+06 -2.839127978867e+06 -2.848487713179e+06 -2.844519696612e+06 -2.852240396481e+06 -2.854895729385e+06 -2.858128671721e+06 -2.865001360364e+06 -2.875854901134e+06 -2.869330268660e+06 -2.877856697545e+06 -2.883334003487e+06 -2.874354659376e+06 -2.872047382638e+06 -2.878435314668e+06 -2.890413057804e+06 -2.885941172162e+06 -2.891927380548e+06 -2.893561233007e+06 -2.895991624921e+06 -2.903691183692e+06 -2.932226736655e+06 -2.933854578163e+06 -2.942381007054e+06 -2.931326907405e+06 -2.922048146540e+06 -2.913669214933e+06 -2.906269072910e+06 -2.914795501809e+06 -2.913044482702e+06 -2.911734366690e+06 -2.919573342972e+06 -2.931444074021e+06 -2.929059286819e+06 -2.941456858097e+06 -2.950700118301e+06 -2.950810157104e+06 -2.960163456117e+06 -2.950583699493e+06 -2.951734306076e+06 -2.960260734965e+06 -2.951483528751e+06 -2.943207877180e+06 -2.951734306079e+06 -2.960260734965e+06 -2.951570045697e+06 -2.960433768831e+06 -2.953378127948e+06 -2.953544143000e+06 -2.944851699051e+06 -2.935616196664e+06 -2.937699256608e+06 -2.934015633264e+06 -2.934430670965e+06 -2.924325039986e+06 -2.915527304236e+06 -2.910054425838e+06 -2.900853519791e+06 -2.904161290182e+06 -2.897972891811e+06 -2.897467546989e+06 -2.887337596295e+06 -2.879448802145e+06 -2.874577700545e+06 -2.865393510528e+06 -2.869293028117e+06 -2.861894389727e+06 -2.860504423029e+06 -2.850350152646e+06 -2.843339937990e+06 -2.838524095598e+06 -2.829341440561e+06 -2.833295296351e+06 -2.825785525565e+06 -2.823541299071e+06 -2.813362708970e+06 -2.807215137647e+06 -2.802167703519e+06 -2.792978615370e+06 -2.796704739289e+06 -2.789660725213e+06 -2.786578175105e+06 -2.776375265296e+06 -2.767040284790e+06 -2.762411959774e+06 -2.758513855900e+06 -2.749615051155e+06 -2.753531411603e+06 -2.747083001527e+06 -2.738063047256e+06 -2.741213070218e+06 -2.734969836926e+06 -2.739678213287e+06 -2.730391872226e+06 -2.744830203754e+06 -2.739497083693e+06 -2.749222282031e+06 -2.753073049568e+06 -2.758285189397e+06 -2.767191574382e+06 -2.773220093739e+06 -2.771356665280e+06 -2.763090485650e+06 -2.771184819548e+06 -2.753064851214e+06 -2.752958228980e+06 -2.744001943841e+06 -2.734414122635e+06 -2.729391310941e+06 -2.720500704743e+06 -2.725195511164e+06 -2.721865443333e+06 -2.712950859800e+06 -2.717415424519e+06 -2.710924793063e+06 -2.702419517479e+06 -2.705484293799e+06 -2.698882555677e+06 -2.702998243152e+06 -2.693743459628e+06 -2.707582197565e+06 -2.701728377813e+06 -2.711437797377e+06 -2.715473981222e+06 -2.714579230008e+06 -2.713174784247e+06 -2.704739762315e+06 -2.684792032160e+06 -2.695676854938e+06 -2.693228105563e+06 -2.696281942079e+06 -2.691591047496e+06 -2.682716220062e+06 -2.687979062521e+06 -2.685217030732e+06 -2.676286668417e+06 -2.681328143267e+06 -2.675267134776e+06 -2.666741748562e+06 -2.670255927733e+06 -2.662793472372e+06 -2.666318272998e+06 -2.657095047044e+06 -2.670334191369e+06 -2.663959671909e+06 -2.673653312692e+06 -2.677046494147e+06 -2.674733307830e+06 -2.672001957614e+06 -2.664931323315e+06 -2.645390432099e+06 -2.655868415962e+06 -2.652447851334e+06 -2.657854455012e+06 -2.653790784043e+06 -2.644931735399e+06 -2.650762613905e+06 -2.648568618172e+06 -2.639622477076e+06 -2.645239059969e+06 -2.639454724033e+06 -2.628722867129e+06 -2.632702217442e+06 -2.626581172599e+06 -2.629638302852e+06 -2.620446634439e+06 -2.633086185213e+06 -2.626190966042e+06 -2.635868828046e+06 -2.638640113135e+06 -2.635298953497e+06 -2.631614275768e+06 -2.625523899137e+06 -2.606685919899e+06 -2.616460991776e+06 -2.612778641606e+06 -2.619448073998e+06 -2.615990520593e+06 -2.607147250742e+06 -2.613546165268e+06 -2.611920205546e+06 -2.602958285675e+06 -2.609026760172e+06 -2.602140471172e+06 -2.591221942677e+06 -2.593497842186e+06 -2.590614964844e+06 -2.582088908190e+06 -2.573663206257e+06 -2.573562479293e+06 -2.564107173379e+06 -2.573562107048e+06 -2.555913443483e+06 -2.556084779724e+06 -2.553649626594e+06 -2.559470148381e+06 -2.566026280810e+06 -2.575271792943e+06 -2.576329716615e+06 -2.583798221835e+06 -2.592958332680e+06 -2.595838179023e+06 -2.588422260165e+06 -2.598084343390e+06 -2.600272359655e+06 -2.596617836059e+06 -2.592663538134e+06 -2.586850398081e+06 -2.568123450342e+06 -2.577787490712e+06 -2.573937819477e+06 -2.581080320504e+06 -2.578190257143e+06 -2.569195522333e+06 -2.565229722874e+06 -2.561692987011e+06 -2.556166815509e+06 -2.558051952612e+06 -2.553932631544e+06 -2.548289176329e+06 -2.536546656460e+06 -2.530508415462e+06 -2.534538364388e+06 -2.517910493879e+06 -2.527292756939e+06 -2.519864078641e+06 -2.519300832847e+06 -2.514848351002e+06 -2.509547467873e+06 -2.504682701455e+06 -2.500484560502e+06 -2.490869544978e+06 -2.496159781152e+06 -2.453092515963e+06 -2.461961286443e+06 -2.458292430760e+06 -2.416153118808e+06 -2.424244244258e+06 -2.422059521475e+06 -2.379213045320e+06 -2.387390560599e+06 -2.387221352571e+06 -2.333733574121e+06 -2.339463095338e+06 -2.341433181220e+06 -2.368407669120e+06 -2.374864402382e+06 -2.372850410309e+06 -2.403953585619e+06 -2.411340844613e+06 -2.406186303072e+06 -2.407730655510e+06 -2.400613080652e+06 -2.345204821495e+06 -2.354868678040e+06 -2.349505009281e+06 -2.360829443450e+06 -2.364442626076e+06 -2.356247668944e+06 -2.366217635010e+06 -2.368401230586e+06 -2.372916388995e+06 -2.379262448596e+06 -2.377317116077e+06 -2.381141165038e+06 -2.386008388223e+06 -2.393753984381e+06 -2.400490571796e+06 -2.391427664440e+06 -2.395547192128e+06 -2.392836676769e+06 -2.383027567698e+06 -2.388095328777e+06 -2.376629935214e+06 -2.370474323434e+06 -2.363540421879e+06 -2.353922507162e+06 -2.355686817460e+06 -2.348451425947e+06 -2.343087757170e+06 -2.336769751806e+06 -2.327062074320e+06 -2.324955361874e+06 -2.294771953009e+06 -2.304946901069e+06 -2.306590246351e+06 -2.326799729472e+06 -2.324229199307e+06 -2.316436135436e+06 -2.309127882009e+06 -2.306862187420e+06 -2.294608825525e+06 -2.302322924817e+06 -2.254365339861e+06 -2.263956231032e+06 -2.259922647418e+06 -2.215369188926e+06 -2.223873600849e+06 -2.221454059953e+06 -2.176551912005e+06 -2.184983886816e+06 -2.184807320480e+06 -2.129905180623e+06 -2.127522769165e+06 -2.120720202098e+06 -2.114346276983e+06 -2.112232365090e+06 -2.101323562238e+06 -2.108050154479e+06 -2.065363692451e+06 -2.074141258085e+06 -2.070111913990e+06 -2.029971553323e+06 -2.038302847997e+06 -2.034856346310e+06 -1.994504414998e+06 -2.002952105726e+06 -1.999971186247e+06 -1.958703284926e+06 -1.967492068986e+06 -1.964630161042e+06 -1.922564386902e+06 -1.931675658079e+06 -1.928601200692e+06 -1.886404463016e+06 -1.895512891865e+06 -1.892230204326e+06 -1.850782881162e+06 -1.859347089338e+06 -1.856428586048e+06 -1.815942182317e+06 -1.823765945937e+06 -1.821996579637e+06 -1.781092773297e+06 -1.788999209291e+06 -1.788837427558e+06 -1.771699772944e+06 -1.771697133895e+06 -1.758364489496e+06 -1.767227934554e+06 -1.763233650889e+06 -1.740162144610e+06 -1.735771824233e+06 -1.731311988823e+06 -1.749496733925e+06 -1.744275592638e+06 -1.758740404585e+06 -1.754732404328e+06 -1.767222769376e+06 -1.776072497844e+06 -1.785406981722e+06 -1.780170134741e+06 -1.794244397054e+06 -1.803114063545e+06 -1.799135324602e+06 -1.803145138129e+06 -1.794657301132e+06 -1.790825860638e+06 -1.797487046273e+06 -1.806680004244e+06 -1.804580065641e+06 -1.808300819160e+06 -1.812000072418e+06 -1.821334289923e+06 -1.816076265076e+06 -1.830129937801e+06 -1.839000192566e+06 -1.835042631503e+06 -1.839073622907e+06 -1.830585785906e+06 -1.826712149413e+06 -1.832253782934e+06 -1.841415642231e+06 -1.838214810736e+06 -1.844187107929e+06 -1.847927968935e+06 -1.857261598148e+06 -1.851982395425e+06 -1.866015478539e+06 -1.874886321582e+06 -1.870949938386e+06 -1.875002107674e+06 -1.866514270681e+06 -1.862641301682e+06 -1.867834926322e+06 -1.876987118742e+06 -1.873444078496e+06 -1.880116260208e+06 -1.883855865436e+06 -1.893188906396e+06 -1.887888525778e+06 -1.901901019340e+06 -1.910772450660e+06 -1.906857245343e+06 -1.910930592506e+06 -1.902442755508e+06 -1.898601225524e+06 -1.904000728879e+06 -1.913158640127e+06 -1.909818047282e+06 -1.916076184052e+06 -1.919783761980e+06 -1.929116214666e+06 -1.923794656191e+06 -1.937786560141e+06 -1.946658579734e+06 -1.942764552286e+06 -1.946859077321e+06 -1.938371240308e+06 -1.934560989561e+06 -1.940163495058e+06 -1.949327045277e+06 -1.946186071223e+06 -1.952035948097e+06 -1.955711658517e+06 -1.965043522933e+06 -1.959700786579e+06 -2.016508240781e+06 -2.019653026061e+06 -2.011165189062e+06 -2.012506370041e+06 -2.021352007990e+06 -2.007277584391e+06 -2.002042691334e+06 -1.996543896055e+06 -1.991949523559e+06 -1.987914730454e+06 -1.982544708796e+06 -1.973672100931e+06 -1.978671859227e+06 -1.982787562124e+06 -1.974299725126e+06 -1.970502524364e+06 -1.975979905989e+06 -1.985139980537e+06 -1.981875968002e+06 -1.987977482912e+06 -1.991639555057e+06 -2.001907810302e+06 -2.006425302673e+06 -2.011439942728e+06 -2.020587163337e+06 -2.016868121595e+06 -2.023900261205e+06 -2.028531988936e+06 -2.038827214110e+06 -2.034434217509e+06 -2.051340639163e+06 -2.060159307172e+06 -2.054344622349e+06 -2.056518490010e+06 -2.048030653001e+06 -2.042342328631e+06 -2.046790685018e+06 -2.055922175535e+06 -2.051646288169e+06 -2.059817287190e+06 -2.065424422795e+06 -2.075746617898e+06 -2.072324538925e+06 -2.090174908297e+06 -2.098966606376e+06 -2.092181003894e+06 -2.093383953919e+06 -2.084896116918e+06 -2.078285021328e+06 -2.082629095099e+06 -2.091757688865e+06 -2.087379256927e+06 -2.095759979856e+06 -2.102316856650e+06 -2.112666021691e+06 -2.110214860354e+06 -2.121761580823e+06 -2.130017385452e+06 -2.130249417812e+06 -2.129009177429e+06 -2.138245941219e+06 -2.147260311640e+06 -2.148490913073e+06 -2.157710066973e+06 -2.149222229962e+06 -2.139735823885e+06 -2.150148691414e+06 -2.131821235534e+06 -2.138694445166e+06 -2.149545571095e+06 -2.147298868055e+06 -2.158636263164e+06 -2.167023946794e+06 -2.167124100183e+06 -2.167124365431e+06 -2.166420297388e+06 -2.176610678981e+06 -2.166079424860e+06 -2.227245500711e+06 -2.236998475896e+06 -2.227424527877e+06 -2.216353383869e+06 -2.226503300124e+06 -2.205924913127e+06 -2.206398321833e+06 -2.206013338791e+06 -2.196429907100e+06 -2.187089956569e+06 -2.187281499632e+06 -2.177144099258e+06 -2.187573127845e+06 -2.196875530703e+06 -2.187301582678e+06 -2.187470169920e+06 -2.194557834838e+06 -2.204915301417e+06 -2.202127859215e+06 -2.207181239376e+06 -2.206730786498e+06 -2.216723675163e+06 -2.227931351899e+06 -2.233447548860e+06 -2.243761363536e+06 -2.239428644498e+06 -2.247642421330e+06 -2.246841215792e+06 -2.256821588558e+06 -2.245660679848e+06 -2.255562668461e+06 -2.265725100625e+06 -2.266917873559e+06 -2.277121421084e+06 -2.267547473062e+06 -2.268455318907e+06 -2.273530179056e+06 -2.283831734377e+06 -2.279065034144e+06 -2.288166388331e+06 -2.286951645061e+06 -2.296919501917e+06 -2.285308020865e+06 -2.307670418203e+06 -2.317244366216e+06 -2.328838951461e+06 -2.336710378322e+06 -2.348831607248e+06 -2.346421412724e+06 -2.359078956910e+06 -2.368540269783e+06 -2.368652904918e+06 -2.368652905339e+06 -2.374694178831e+06 -2.382003291879e+06 -2.389638794769e+06 -2.396453467952e+06 -2.406260997010e+06 -2.403725923487e+06 -2.408297721706e+06 -2.409877250926e+06 -2.415206567503e+06 -2.425246424346e+06 -2.422540938398e+06 -2.440604189581e+06 -2.449991482067e+06 -2.442743862804e+06 -2.444026038719e+06 -2.434963131351e+06 -2.427942325969e+06 -2.433307151632e+06 -2.443074407147e+06 -2.439113650213e+06 -2.446601252913e+06 -2.453564229280e+06 -2.463721032146e+06 -2.461106075741e+06 -2.479257341708e+06 -2.488642119482e+06 -2.481303970703e+06 -2.482495617102e+06 -2.473432709725e+06 -2.466291297077e+06 -2.471024193815e+06 -2.480773895740e+06 -2.476191742033e+06 -2.484950224008e+06 -2.492036322381e+06 -2.502195639962e+06 -2.499671213059e+06 -2.511902288117e+06 -2.520965195496e+06 -2.523341628391e+06 -2.529400652542e+06 -2.539226268968e+06 -2.535030225912e+06 -2.542500947904e+06 -2.546411746789e+06 -2.550759143639e+06 -2.544925866510e+06 -2.554154760184e+06 -2.551856647818e+06 -2.542544768733e+06 -2.538567012482e+06 -2.532743178413e+06 -2.531380534845e+06 -2.534814670081e+06 -2.526878437897e+06 -2.518688221074e+06 -2.520888367129e+06 -2.515363180955e+06 -2.507532390356e+06 -2.497790526959e+06 -2.495990082755e+06 -2.489566229367e+06 -2.480570750326e+06 -2.484246613470e+06 -2.476655104803e+06 -2.468884267623e+06 -2.459139889537e+06 -2.457282006623e+06 -2.451390798125e+06 -2.441666392581e+06 -2.445961074744e+06 -2.437905613568e+06 -2.430236144918e+06 -2.420489252100e+06 -2.418532515385e+06 -2.412482046876e+06 -2.402599478062e+06 -2.406746080495e+06 -2.399261998044e+06 -2.393819433022e+06 -2.384012809847e+06 -2.379888899869e+06 -2.373432348937e+06 -2.363699319003e+06 -2.367535196592e+06 -2.360683745189e+06 -2.358506149399e+06 -2.348611502816e+06 -2.341310647009e+06 -2.334527528983e+06 -2.324633621686e+06 -2.328325504216e+06 -2.322143364690e+06 -2.324101270951e+06 -2.314095308526e+06 -2.302770266508e+06 -2.295431766005e+06 -2.284836925947e+06 -2.288238149631e+06 -2.283316847109e+06 -2.284866954588e+06 -2.274873508087e+06 -2.263943748969e+06 -2.255644077087e+06 -2.244686110247e+06 -2.247088521229e+06 -2.244471691664e+06 -2.245632638230e+06 -2.235651707593e+06 -2.225098593488e+06 -2.216164604617e+06 -2.205674808967e+06 -2.206836571032e+06 -2.195943638680e+06 -2.186902786967e+06 -2.186795231204e+06 -2.176676311393e+06 -2.168355561938e+06 -2.168528439210e+06 -2.166733977768e+06 -2.166900056725e+06 -2.156665126421e+06 -2.146817899389e+06 -2.138507165737e+06 -2.130160220640e+06 -2.132546588304e+06 -2.126542624557e+06 -2.118383679124e+06 -2.108371421140e+06 -2.106626546207e+06 -2.100207077307e+06 -2.090793091554e+06 -2.094772025316e+06 -2.086788882859e+06 -2.079603349845e+06 -2.069564121937e+06 -2.066872804493e+06 -2.060681114983e+06 -2.048640644545e+06 -2.053123664077e+06 -2.046888545503e+06 -2.040823020620e+06 -2.030756822785e+06 -2.026972467160e+06 -2.019319751417e+06 -2.007393247109e+06 -2.009781082155e+06 -1.997325851454e+06 -1.988031627085e+06 -1.987921036681e+06 -1.977558273480e+06 -1.969720065097e+06 -1.969881901362e+06 -1.968308234850e+06 -1.964226899406e+06 -1.955126415408e+06 -1.950376347534e+06 -1.942845936330e+06 -1.935193779404e+06 -1.937064452643e+06 -1.932513677822e+06 -1.928340182071e+06 -1.919240286358e+06 -1.914581790505e+06 -1.908245177147e+06 -1.899921242721e+06 -1.903088800119e+06 -1.896679844399e+06 -1.892453464718e+06 -1.883354157259e+06 -1.878747957077e+06 -1.872924076076e+06 -1.864021601406e+06 -1.867768704746e+06 -1.860813005498e+06 -1.856566747381e+06 -1.847468028231e+06 -1.842881118201e+06 -1.837014863158e+06 -1.827922165338e+06 -1.831639118361e+06 -1.824935651134e+06 -1.820680030095e+06 -1.811581899200e+06 -1.807003763821e+06 -1.800928755471e+06 -1.791958138506e+06 -1.795446501896e+06 -1.789065423539e+06 -1.784793312801e+06 -1.775695770201e+06 -1.771133536259e+06 -1.764984820547e+06 -1.756325731480e+06 -1.759711082317e+06 -1.753212971571e+06 -1.748912872492e+06 -1.739815757233e+06 -1.735281084283e+06 -1.731347921578e+06 -1.729357587037e+06 -1.720907304546e+06 -1.724509776309e+06 -1.717371781710e+06 -1.722484903837e+06 -1.727338254144e+06 -1.722829624067e+06 -1.713586808059e+06 -1.718807094677e+06 -1.704251791430e+06 -1.700474389569e+06 -1.707035993910e+06 -1.717786466752e+06 -1.715210954657e+06 -1.726888363145e+06 -1.734822651272e+06 -1.735370727926e+06 -1.744851173209e+06 -1.754485639694e+06 -1.754096860163e+06 -1.763217408162e+06 -1.771602929950e+06 
        </DataArray>
        <DataArray type="Float64" Name="NODAL_VELOCITY1" NumberOfComponents="3" format="ascii">
          2.556771505624e-20 0.000000000000e+00 -1.515640105936e-17 7.657993895312e-20 0.000000000000e+00 -1.505828622612e-17 1.700061451023e-19 0.000000000000e+00 -1.479688532224e-17 2.737205553179e-19 0.000000000000e+00 -1.434780545727e-17 3.564481933912e-19 0.000000000000e+00 -1.372268622314e-17 4.050515902539e-19 0.000000000000e+00 -1.296429084808e-17 4.370803556715e-19 0.000000000000e+00 -1.210301537261e-17 4.490177767972e-19 0.000000000000e+00 -1.116781810803e-17 4.312004117916e-19 0.000000000000e+00 -1.019204428303e-17 3.813610722621e-19 0.000000000000e+00 -9.232873223179e-18 4.418160564068e-19 0.000000000000e+00 -8.257688750746e-18 9.183067281186e-19 0.000000000000e+00 -8.241501685310e-18 1.837804928162e-18 0.000000000000e+00 -8.201036689570e-18 2.806468556038e-18 0.000000000000e+00 -8.122332170994e-18 3.835338044877e-18 0.000000000000e+00 -7.985733342745e-18 4.933988631510e-18 0.000000000000e+00 -7.793500602323e-18 6.101757161818e-18 0.000000000000e+00 -7.523553843688e-18 7.378386947945e-18 0.000000000000e+00 -7.138099802736e-18 8.762988028105e-18 0.000000000000e+00 -6.594487786060e-18 1.026522914886e-17 0.000000000000e+00 -5.827551406886e-18 1.188622042740e-17 0.000000000000e+00 -4.751056985697e-18 1.359597612343e-17 0.000000000000e+00 -3.279159864178e-18 1.535440919876e-17 0.000000000000e+00 -1.292204494045e-18 1.702401041621e-17 0.000000000000e+00 1.376359675002e-18 1.830220351387e-17 0.000000000000e+00 4.886900569545e-18 1.855007579263e-17 0.000000000000e+00 9.802645217860e-18 1.829335353225e-17 0.000000000000e+00 1.467566710614e-17 1.561662274495e-17 0.000000000000e+00 2.067381356028e-17 2.230348958013e-17 0.000000000000e+00 2.662169160127e-17 3.419623632605e-17 0.000000000000e+00 3.430792203289e-17 5.777780024800e-17 0.000000000000e+00 4.250869363508e-17 1.050536933083e-16 0.000000000000e+00 3.800902898850e-17 1.662633182508e-16 0.000000000000e+00 -3.144602451357e-17 8.642713335699e-16 0.000000000000e+00 -9.232361844624e-17 1.352760135584e-16 0.000000000000e+00 1.726029797283e-16 4.916324590643e-17 0.000000000000e+00 9.113124372864e-17 2.610258719263e-17 0.000000000000e+00 5.798282387938e-17 1.646798918955e-17 0.000000000000e+00 4.029111757215e-17 1.149867700102e-17 0.000000000000e+00 2.968133170119e-17 8.478908178707e-18 0.000000000000e+00 2.267127056257e-17 6.513216067106e-18 0.000000000000e+00 1.777994499813e-17 5.102347737799e-18 0.000000000000e+00 1.424294775158e-17 4.114317319666e-18 0.000000000000e+00 1.149999710227e-17 3.388516051928e-18 0.000000000000e+00 9.447282597345e-18 2.792274129130e-18 0.000000000000e+00 7.834385178285e-18 1.255552118502e-18 0.000000000000e+00 8.550368511351e-18 -1.283079784896e-19 0.000000000000e+00 8.950111701519e-18 -1.871303221890e-18 0.000000000000e+00 8.738094038563e-18 -3.422447066725e-18 0.000000000000e+00 8.267750915062e-18 -4.783987001626e-18 0.000000000000e+00 7.471888238797e-18 -5.890408932885e-18 0.000000000000e+00 6.451781518990e-18 -6.709176196769e-18 0.000000000000e+00 5.294300838917e-18 -7.242361083589e-18 0.000000000000e+00 4.079938662471e-18 -7.513547614716e-18 0.000000000000e+00 2.882115222747e-18 -7.572348709554e-18 0.000000000000e+00 1.753823744366e-18 -7.465802655796e-18 0.000000000000e+00 7.234947891751e-19 -7.228639352282e-18 0.000000000000e+00 -1.952151554481e-19 -6.903977588498e-18 0.000000000000e+00 -9.949224477168e-19 -6.522067546181e-18 0.000000000000e+00 -1.687576150289e-18 -6.087096692416e-18 0.000000000000e+00 -2.281489287270e-18 -5.617919227537e-18 0.000000000000e+00 -2.777277889739e-18 -5.143227711339e-18 0.000000000000e+00 -3.186032457355e-18 -4.684312177024e-18 0.000000000000e+00 -3.529445045084e-18 -4.225743369091e-18 0.000000000000e+00 -3.813412088978e-18 -3.786142586648e-18 0.000000000000e+00 -4.045076639159e-18 -3.354304158165e-18 0.000000000000e+00 -4.232781793689e-18 -2.935256620636e-18 0.000000000000e+00 -4.378999437904e-18 -2.532164718616e-18 0.000000000000e+00 -4.494354410175e-18 -2.137490074953e-18 0.000000000000e+00 -4.589793631264e-18 -1.762700754663e-18 0.000000000000e+00 -4.661492857849e-18 -1.387890485205e-18 0.000000000000e+00 -4.715310691002e-18 -1.022307962254e-18 0.000000000000e+00 -4.759661048107e-18 -6.705008222715e-19 0.000000000000e+00 -4.788360335321e-18 -3.375198427117e-19 0.000000000000e+00 -4.804841834509e-18 -1.637378559849e-19 0.000000000000e+00 -4.809919482796e-18 -1.438776962459e-19 0.000000000000e+00 -5.160116173405e-18 -1.635130805274e-19 0.000000000000e+00 -5.500817254263e-18 -1.747374578069e-19 0.000000000000e+00 -5.850792755761e-18 -1.751604334762e-19 0.000000000000e+00 -6.214745856899e-18 -1.718814019114e-19 0.000000000000e+00 -6.572657002835e-18 -1.653660243998e-19 0.000000000000e+00 -6.911524542375e-18 -1.566154727091e-19 0.000000000000e+00 -7.233416787737e-18 -1.447702137132e-19 0.000000000000e+00 -7.558642391814e-18 -1.365706945459e-19 0.000000000000e+00 -7.864021123775e-18 -1.251076658567e-19 0.000000000000e+00 -8.136966547075e-18 -1.065956894308e-19 0.000000000000e+00 -8.369903904774e-18 -9.165572312971e-20 0.000000000000e+00 -8.572181347214e-18 -7.353858867039e-20 0.000000000000e+00 -8.734918325596e-18 -4.617710753034e-20 0.000000000000e+00 -8.854921179591e-18 -2.183660399169e-20 0.000000000000e+00 -8.918992292214e-18 -7.057678885758e-21 0.000000000000e+00 -8.939622057369e-18 -1.398924117287e-20 0.000000000000e+00 -8.969808550319e-18 -3.014768784245e-20 0.000000000000e+00 -9.049624835219e-18 -4.521765125295e-20 0.000000000000e+00 -9.182343152740e-18 -5.848123691976e-20 0.000000000000e+00 -9.363471811715e-18 -7.971151111027e-20 0.000000000000e+00 -9.604607718453e-18 -9.753081637124e-20 0.000000000000e+00 -9.913869871525e-18 -1.200106150160e-19 0.000000000000e+00 -1.029279689343e-17 -1.441687345505e-19 0.000000000000e+00 -1.075194765387e-17 -1.752477449675e-19 0.000000000000e+00 -1.130615443496e-17 -2.097998124858e-19 0.000000000000e+00 -1.197354989320e-17 -2.507430811723e-19 0.000000000000e+00 -1.277141976364e-17 -3.009859938174e-19 0.000000000000e+00 -1.372711970665e-17 -3.604897453139e-19 0.000000000000e+00 -1.487283467820e-17 -4.369765520096e-19 0.000000000000e+00 -1.625410732231e-17 -5.277921445668e-19 0.000000000000e+00 -1.792522404382e-17 -6.489319882045e-19 0.000000000000e+00 -1.996339148415e-17 -7.956773818781e-19 0.000000000000e+00 -2.246550599618e-17 -9.829954554637e-19 0.000000000000e+00 -2.554625607445e-17 -1.231600375225e-18 0.000000000000e+00 -2.938214189877e-17 -1.535644211496e-18 0.000000000000e+00 -3.417548553747e-17 -1.914529517914e-18 0.000000000000e+00 -4.015240920126e-17 -2.364779356867e-18 0.000000000000e+00 -4.756755006383e-17 -2.837571082637e-18 0.000000000000e+00 -5.658667287207e-17 -3.208225825801e-18 0.000000000000e+00 -6.707764623570e-17 -3.225732749949e-18 0.000000000000e+00 -7.825868112074e-17 -2.567633055151e-18 0.000000000000e+00 -8.834680120344e-17 -1.179067961251e-18 0.000000000000e+00 -9.488424620940e-17 6.649274534235e-19 0.000000000000e+00 -9.577552482369e-17 2.236169530079e-18 0.000000000000e+00 -9.068301418059e-17 3.070820821449e-18 0.000000000000e+00 -8.138441310924e-17 3.207461365188e-18 0.000000000000e+00 -7.041207306126e-17 2.908840542659e-18 0.000000000000e+00 -5.975153981126e-17 2.445519203320e-18 0.000000000000e+00 -5.043700342261e-17 1.981439224134e-18 0.000000000000e+00 -4.274219027138e-17 1.577573129907e-18 0.000000000000e+00 -3.655557350915e-17 1.249411919465e-18 0.000000000000e+00 -3.163848232361e-17 9.881701165189e-19 0.000000000000e+00 -2.774399690679e-17 7.842861426373e-19 0.000000000000e+00 -2.465904714578e-17 6.219391555836e-19 0.000000000000e+00 -2.221514805569e-17 4.956983805945e-19 0.000000000000e+00 -2.028004795041e-17 3.940095969786e-19 0.000000000000e+00 -1.874937758354e-17 3.076003243526e-19 0.000000000000e+00 -1.755166182799e-17 2.303684595972e-19 0.000000000000e+00 -1.663781028280e-17 1.610974625995e-19 0.000000000000e+00 -1.596859583515e-17 9.747454896569e-20 0.000000000000e+00 -1.551314223131e-17 4.485870401065e-20 0.000000000000e+00 -1.525433253846e-17 -2.315755841664e-19 0.000000000000e+00 -5.041594122304e-18 7.752212695777e-20 0.000000000000e+00 -1.515408119303e-17 -2.411921741441e-20 0.000000000000e+00 -8.941192500060e-18 6.274640869819e-19 0.000000000000e+00 -8.900858665584e-18 2.351734282066e-17 0.000000000000e+00 1.831263309993e-17 1.390216373861e-18 0.000000000000e+00 -9.023803916837e-18 2.056728893270e-19 0.000000000000e+00 -1.528439073203e-17 -6.355524722797e-20 0.000000000000e+00 -8.912817429518e-18 -2.850933621327e-19 0.000000000000e+00 -5.319897900335e-18 -5.070933762378e-19 0.000000000000e+00 -5.081855003179e-18 -6.375466909958e-20 0.000000000000e+00 -8.984060696093e-18 2.335440701644e-17 0.000000000000e+00 1.234535749453e-17 2.030850737356e-19 0.000000000000e+00 -1.502235027147e-17 7.676106179133e-19 0.000000000000e+00 -9.684753846765e-18 3.170673392430e-17 0.000000000000e+00 2.132785146906e-17 2.861263067947e-17 0.000000000000e+00 1.519401060553e-17 2.281188168567e-17 0.000000000000e+00 6.191262461167e-18 2.868609117286e-17 0.000000000000e+00 8.002621931761e-18 2.096805637337e-17 0.000000000000e+00 1.568553610317e-18 1.860427188258e-17 0.000000000000e+00 -1.780841315243e-18 1.620123425221e-17 0.000000000000e+00 -4.136972953953e-18 1.396368908604e-17 0.000000000000e+00 -5.783324255996e-18 1.192127548813e-17 0.000000000000e+00 -6.918569609600e-18 1.007500493939e-17 0.000000000000e+00 -7.685696133800e-18 8.433281623849e-18 0.000000000000e+00 -8.184229227481e-18 6.978450607435e-18 0.000000000000e+00 -8.502353496927e-18 5.687567556304e-18 0.000000000000e+00 -8.713932523582e-18 4.518891883846e-18 0.000000000000e+00 -8.862938314754e-18 3.429227668720e-18 0.000000000000e+00 -8.983337465907e-18 2.382545946833e-18 0.000000000000e+00 -9.062582830666e-18 4.533837324873e-17 0.000000000000e+00 2.168774195265e-17 3.624403897058e-17 0.000000000000e+00 1.341494332467e-17 6.653340897174e-17 0.000000000000e+00 1.256956529687e-17 9.377254879967e-17 0.000000000000e+00 -8.042125201817e-18 1.806489256394e-18 0.000000000000e+00 -1.007920977177e-17 3.869297567386e-19 0.000000000000e+00 -1.561757356588e-17 5.857702262801e-19 0.000000000000e+00 -1.617060309703e-17 8.023227186034e-19 0.000000000000e+00 -1.695552952394e-17 1.045450183786e-18 0.000000000000e+00 -1.799656674848e-17 1.324435038441e-18 0.000000000000e+00 -1.933461001803e-17 1.662245847456e-18 0.000000000000e+00 -2.102696040917e-17 2.089778466067e-18 0.000000000000e+00 -2.315888001855e-17 2.632942811450e-18 0.000000000000e+00 -2.584625835880e-17 3.323741830741e-18 0.000000000000e+00 -2.923765496234e-17 4.202046939857e-18 0.000000000000e+00 -3.352515511021e-17 5.298723536384e-18 0.000000000000e+00 -3.894890372370e-17 6.614242661840e-18 0.000000000000e+00 -4.578661294848e-17 8.050370788245e-18 0.000000000000e+00 -5.429752078877e-17 9.296650838072e-18 0.000000000000e+00 -6.456395907056e-17 9.699397662644e-18 0.000000000000e+00 -7.614199688154e-17 8.344559248978e-18 0.000000000000e+00 -8.752255404640e-17 4.613594791181e-18 0.000000000000e+00 -9.593262584531e-17 -8.626214518396e-19 0.000000000000e+00 -9.838304952912e-17 -5.932144741413e-18 0.000000000000e+00 -9.397152292271e-17 -9.086061425023e-18 0.000000000000e+00 -8.440923047601e-17 -9.902116001588e-18 0.000000000000e+00 -7.263067891472e-17 -9.161301153426e-18 0.000000000000e+00 -6.118531091488e-17 -7.806897112062e-18 0.000000000000e+00 -5.125741372467e-17 -6.388472151523e-18 0.000000000000e+00 -4.308456288224e-17 -5.136914806592e-18 0.000000000000e+00 -3.650677899714e-17 -4.114589027833e-18 0.000000000000e+00 -3.125058841154e-17 -3.292465479106e-18 0.000000000000e+00 -2.704970417350e-17 -2.646737251855e-18 0.000000000000e+00 -2.367916240473e-17 -2.147857696590e-18 0.000000000000e+00 -2.095752982617e-17 -1.751473460796e-18 0.000000000000e+00 -1.874398027818e-17 -1.437688627713e-18 0.000000000000e+00 -1.692940835104e-17 -1.188689556888e-18 0.000000000000e+00 -1.543269439329e-17 -9.853932159946e-19 0.000000000000e+00 -1.419400044445e-17 -8.223656147166e-19 0.000000000000e+00 -1.316407603251e-17 -6.868828216729e-19 0.000000000000e+00 -1.230303144742e-17 -5.751195374160e-19 0.000000000000e+00 -1.158131660001e-17 -4.767343691962e-19 0.000000000000e+00 -1.097884499662e-17 -3.946954279854e-19 0.000000000000e+00 -1.047919383079e-17 -3.256238225428e-19 0.000000000000e+00 -1.006454234205e-17 -2.649649976168e-19 0.000000000000e+00 -9.724082337925e-18 -2.072408960885e-19 0.000000000000e+00 -9.451721901617e-18 -1.559093864974e-19 0.000000000000e+00 -9.240967968556e-18 -1.134823226797e-19 0.000000000000e+00 -9.084078919841e-18 -1.108162299109e-19 0.000000000000e+00 -8.819019725100e-18 -1.491750784529e-19 0.000000000000e+00 -8.671386300800e-18 -1.780451081383e-19 0.000000000000e+00 -8.485235108916e-18 -2.053711796179e-19 0.000000000000e+00 -8.267327696861e-18 -2.304499503225e-19 0.000000000000e+00 -8.013377131041e-18 -2.507314396401e-19 0.000000000000e+00 -7.721375671584e-18 -2.702329463015e-19 0.000000000000e+00 -7.403891989573e-18 -2.886983565986e-19 0.000000000000e+00 -7.079065896202e-18 -2.995608762528e-19 0.000000000000e+00 -6.747352745151e-18 -3.056717105210e-19 0.000000000000e+00 -6.397614257973e-18 -3.188353730366e-19 0.000000000000e+00 -6.035441523030e-18 -3.208677905301e-19 0.000000000000e+00 -5.667330515280e-18 -8.662400991473e-19 0.000000000000e+00 -5.094567556322e-18 -1.239066008907e-18 0.000000000000e+00 -5.063109225982e-18 -1.615753406270e-18 0.000000000000e+00 -5.018314550398e-18 -1.998524248374e-18 0.000000000000e+00 -4.968200664734e-18 -2.407409666697e-18 0.000000000000e+00 -4.897810140392e-18 -2.826061379343e-18 0.000000000000e+00 -4.806807313192e-18 -3.265194679140e-18 0.000000000000e+00 -4.689049334653e-18 -3.729179742606e-18 0.000000000000e+00 -4.536043707049e-18 -4.200605643234e-18 0.000000000000e+00 -4.342994119118e-18 -4.697802171449e-18 0.000000000000e+00 -4.102577076992e-18 -5.209193508430e-18 0.000000000000e+00 -3.803161719892e-18 -5.735308024650e-18 0.000000000000e+00 -3.431547520449e-18 -6.286412489468e-18 0.000000000000e+00 -2.977942009845e-18 -6.833292036153e-18 0.000000000000e+00 -2.427271344156e-18 -7.337752233857e-18 0.000000000000e+00 -1.759693501905e-18 -7.805728607953e-18 0.000000000000e+00 -9.555828000885e-19 -8.202795342527e-18 0.000000000000e+00 -1.614534994587e-21 -8.492303030039e-18 0.000000000000e+00 1.095367042581e-18 -8.620245032750e-18 0.000000000000e+00 2.336618247985e-18 -8.541801916214e-18 0.000000000000e+00 3.704729169840e-18 -8.172608313828e-18 0.000000000000e+00 5.153811798664e-18 -7.465607077961e-18 0.000000000000e+00 6.618870490153e-18 -6.390851295635e-18 0.000000000000e+00 8.005387644516e-18 -4.951718094996e-18 0.000000000000e+00 9.211660896350e-18 -3.150080086793e-18 0.000000000000e+00 1.015269444906e-17 -8.132895796312e-19 0.000000000000e+00 1.083140824838e-17 1.225732278596e-18 0.000000000000e+00 1.040427378030e-17 7.697650289629e-19 0.000000000000e+00 1.325814591837e-17 1.762227189569e-18 0.000000000000e+00 1.731760951640e-17 2.698474729966e-18 0.000000000000e+00 2.175664366015e-17 3.277824933840e-18 0.000000000000e+00 2.759228134112e-17 3.130420476996e-18 0.000000000000e+00 3.643236278939e-17 1.708940336747e-18 0.000000000000e+00 5.147139340157e-17 -1.864233802605e-18 0.000000000000e+00 7.930897772894e-17 -1.169880477911e-17 0.000000000000e+00 1.385403548608e-16 -1.385923276302e-16 0.000000000000e+00 2.858977190044e-16 -2.619352138330e-18 0.000000000000e+00 1.259412165382e-17 -1.861656034764e-18 0.000000000000e+00 1.587256795444e-17 -1.357203499148e-18 0.000000000000e+00 2.017178662105e-17 -5.298265023157e-19 0.000000000000e+00 2.474268427856e-17 -5.051286522454e-18 0.000000000000e+00 1.139233815290e-17 -6.913246018788e-18 0.000000000000e+00 9.957015815113e-18 -8.339478639148e-18 0.000000000000e+00 8.297715248773e-18 -2.722086043962e-18 0.000000000000e+00 3.054119037448e-17 -9.292340143929e-18 0.000000000000e+00 6.498511599299e-18 -9.780284331384e-18 0.000000000000e+00 4.706344285902e-18 -9.896171953505e-18 0.000000000000e+00 3.036809842646e-18 -9.733700699277e-18 0.000000000000e+00 1.529635968230e-18 -9.371831187366e-18 0.000000000000e+00 2.088372032934e-19 -8.880624952212e-18 0.000000000000e+00 -9.134947807373e-19 -8.297869347966e-18 0.000000000000e+00 -1.852439648549e-18 -7.679607130484e-18 0.000000000000e+00 -2.616120279223e-18 -7.042019042558e-18 0.000000000000e+00 -3.227897347339e-18 -6.404470430728e-18 0.000000000000e+00 -3.726133581949e-18 -5.784153527581e-18 0.000000000000e+00 -4.127714055358e-18 -5.202200374773e-18 0.000000000000e+00 -4.437210009200e-18 -4.645161683925e-18 0.000000000000e+00 -4.681758825124e-18 -4.122758453680e-18 0.000000000000e+00 -4.874285514234e-18 -3.623353813964e-18 0.000000000000e+00 -5.025464391413e-18 -3.139775784196e-18 0.000000000000e+00 -5.147421082559e-18 -2.684243599068e-18 0.000000000000e+00 -5.236083961790e-18 -2.250216221000e-18 0.000000000000e+00 -5.295859349038e-18 -1.836714636738e-18 0.000000000000e+00 -5.334088200470e-18 -1.457143485103e-18 0.000000000000e+00 -5.363947760391e-18 -1.075418488957e-18 0.000000000000e+00 -5.399111008349e-18 -6.587529372025e-19 0.000000000000e+00 -5.447967539242e-18 4.091237011986e-19 0.000000000000e+00 -1.470483754626e-17 5.867987056263e-19 0.000000000000e+00 -1.413209162517e-17 6.943111657165e-19 0.000000000000e+00 -1.339927778948e-17 7.554447317186e-19 0.000000000000e+00 -1.256421655853e-17 8.102511249793e-19 0.000000000000e+00 -1.165333384658e-17 8.379468151058e-19 0.000000000000e+00 -1.067132337387e-17 5.382561842756e-19 0.000000000000e+00 -1.515959835767e-17 9.593838209791e-19 0.000000000000e+00 -1.555451332630e-17 1.369289604251e-18 0.000000000000e+00 -1.622349445825e-17 1.816280610001e-18 0.000000000000e+00 -1.711925894294e-17 2.321901274627e-18 0.000000000000e+00 -1.826038327029e-17 2.916164771705e-18 0.000000000000e+00 -1.969394191595e-17 3.654163162992e-18 0.000000000000e+00 -2.148828668093e-17 4.590285846007e-18 0.000000000000e+00 -2.373556029246e-17 5.784133171005e-18 0.000000000000e+00 -2.655974846372e-17 7.312680329126e-18 0.000000000000e+00 -3.012738137234e-17 9.260087866399e-18 0.000000000000e+00 -3.465893557101e-17 1.169408790910e-17 0.000000000000e+00 -4.044783830371e-17 1.460040408764e-17 0.000000000000e+00 -4.788478812164e-17 1.770869500130e-17 0.000000000000e+00 -5.744225418312e-17 2.016469661991e-17 0.000000000000e+00 -6.948461935584e-17 2.014516906002e-17 0.000000000000e+00 -8.362248020906e-17 1.520276684334e-17 0.000000000000e+00 -9.739304053558e-17 4.439667486504e-18 0.000000000000e+00 -1.056817556673e-16 -8.211246605091e-18 0.000000000000e+00 -1.042505723793e-16 -1.754680680885e-17 0.000000000000e+00 -9.377980046944e-17 -2.100056558068e-17 0.000000000000e+00 -7.927846187764e-17 -2.001424599030e-17 0.000000000000e+00 -6.548971699279e-17 -1.718856904442e-17 0.000000000000e+00 -5.408433329042e-17 -1.407852668696e-17 0.000000000000e+00 -4.505669955203e-17 -1.130153859753e-17 0.000000000000e+00 -3.797784617442e-17 -9.023225622980e-18 0.000000000000e+00 -3.240705579325e-17 -7.211996759438e-18 0.000000000000e+00 -2.799076149434e-17 -5.784705588844e-18 0.000000000000e+00 -2.445774856218e-17 -4.674504325198e-18 0.000000000000e+00 -2.160693475162e-17 -3.804688944852e-18 0.000000000000e+00 -1.929313948494e-17 -3.118814287525e-18 0.000000000000e+00 -1.739575212317e-17 -2.573796738295e-18 0.000000000000e+00 -1.582947467493e-17 -2.132061020958e-18 0.000000000000e+00 -1.453062359360e-17 -1.775137203808e-18 0.000000000000e+00 -1.344568663626e-17 -1.483067375337e-18 0.000000000000e+00 -1.253891556795e-17 -1.242800259623e-18 0.000000000000e+00 -1.177890396017e-17 -1.037341242712e-18 0.000000000000e+00 -1.114164115279e-17 -8.592963846847e-19 0.000000000000e+00 -1.060920840246e-17 -7.118036137399e-19 0.000000000000e+00 -1.016799190741e-17 -5.834810925383e-19 0.000000000000e+00 -9.805329076092e-18 -4.685874747186e-19 0.000000000000e+00 -9.512298614330e-18 -3.611867991064e-19 0.000000000000e+00 -9.280139784096e-18 -2.701962027155e-19 0.000000000000e+00 -9.098921873374e-18 2.630532696154e-17 0.000000000000e+00 1.722357653004e-18 3.502094474633e-17 0.000000000000e+00 1.499941052836e-18 2.973199480039e-18 0.000000000000e+00 -9.953497162011e-18 4.051237283420e-18 0.000000000000e+00 -9.868978668237e-18 5.165927954920e-18 0.000000000000e+00 -9.812214072250e-18 6.406994771169e-18 0.000000000000e+00 -9.769325697562e-18 7.838087579633e-18 0.000000000000e+00 -9.697547890634e-18 9.528449163554e-18 0.000000000000e+00 -9.512566854634e-18 1.150531935086e-17 0.000000000000e+00 -9.110349007339e-18 1.377711600223e-17 0.000000000000e+00 -8.401551410013e-18 1.638107781522e-17 0.000000000000e+00 -7.260653122406e-18 1.937327176620e-17 0.000000000000e+00 -5.487308711357e-18 2.274914748644e-17 0.000000000000e+00 -2.733723037333e-18 2.830206830140e-17 0.000000000000e+00 -4.588807011411e-18 -1.794641450813e-19 0.000000000000e+00 -8.948904828035e-18 -2.642011774393e-19 0.000000000000e+00 -8.794653452545e-18 -3.623447507077e-19 0.000000000000e+00 -8.938621734463e-18 -4.724052208379e-19 0.000000000000e+00 -9.103149689812e-18 -3.264993817235e-19 0.000000000000e+00 -8.618616387442e-18 -3.858828373874e-19 0.000000000000e+00 -8.412934403168e-18 -4.397064913064e-19 0.000000000000e+00 -8.175372507443e-18 -4.491409830128e-19 0.000000000000e+00 -8.771813433365e-18 -5.617812954976e-19 0.000000000000e+00 -8.930129115470e-18 -4.862115019932e-19 0.000000000000e+00 -7.895535964053e-18 -5.376500970063e-19 0.000000000000e+00 -8.582508962718e-18 -6.250750933153e-19 0.000000000000e+00 -8.355912662713e-18 -7.047046286364e-19 0.000000000000e+00 -8.088671226384e-18 -6.620224060801e-19 0.000000000000e+00 -8.768539798136e-18 -5.269510438666e-19 0.000000000000e+00 -7.588370135636e-18 -7.754385781785e-19 0.000000000000e+00 -7.786308682019e-18 -5.638013438632e-19 0.000000000000e+00 -7.261204154929e-18 -5.914490126694e-19 0.000000000000e+00 -6.926387747323e-18 -5.999114364386e-19 0.000000000000e+00 -6.575578724248e-18 -6.053829565644e-19 0.000000000000e+00 -6.230630727562e-18 -6.244037649594e-19 0.000000000000e+00 -5.857474207005e-18 -9.500781743554e-19 0.000000000000e+00 -5.733934085583e-18 -8.934929307240e-19 0.000000000000e+00 -6.062909475683e-18 -1.290830126284e-18 0.000000000000e+00 -5.682170012733e-18 -1.156609796453e-18 0.000000000000e+00 -5.938626854913e-18 -8.956907549873e-19 0.000000000000e+00 -6.398019589445e-18 -1.189733544985e-18 0.000000000000e+00 -6.219306548398e-18 -8.331320714206e-19 0.000000000000e+00 -7.459661901521e-18 -8.738677327832e-19 0.000000000000e+00 -7.118392265208e-18 -8.951319614425e-19 0.000000000000e+00 -6.754531508098e-18 -1.210624274487e-18 0.000000000000e+00 -6.566583579115e-18 -6.063566028539e-19 0.000000000000e+00 -9.290335340969e-18 -6.908232838517e-19 0.000000000000e+00 -9.084104628225e-18 -7.302174344659e-19 0.000000000000e+00 -8.926544833230e-18 -7.720090858735e-19 0.000000000000e+00 -9.526955303348e-18 -9.504946926124e-19 0.000000000000e+00 -9.835087257670e-18 -1.153353544699e-18 0.000000000000e+00 -1.021347391846e-17 -1.392917533849e-18 0.000000000000e+00 -1.067301903580e-17 -1.672888128231e-18 0.000000000000e+00 -1.122456912223e-17 -1.995591714869e-18 0.000000000000e+00 -1.188027260165e-17 -2.383555389033e-18 0.000000000000e+00 -1.265893297386e-17 -2.853413560352e-18 0.000000000000e+00 -1.358652977312e-17 -3.423536801765e-18 0.000000000000e+00 -1.468721529818e-17 -4.131789441719e-18 0.000000000000e+00 -1.599744500709e-17 -5.013789517010e-18 0.000000000000e+00 -1.757191324335e-17 -6.124071902666e-18 0.000000000000e+00 -1.947265579171e-17 -7.541033858597e-18 0.000000000000e+00 -2.178482754971e-17 -9.354908683079e-18 0.000000000000e+00 -2.462334305164e-17 -1.168749429112e-17 0.000000000000e+00 -2.814244580804e-17 -1.467871260038e-17 0.000000000000e+00 -3.256633717683e-17 -1.850475786303e-17 0.000000000000e+00 -3.824052619166e-17 -2.325551971012e-17 0.000000000000e+00 -4.570848226043e-17 -2.872909158972e-17 0.000000000000e+00 -5.583749273986e-17 -3.383186106021e-17 0.000000000000e+00 -6.992513687389e-17 -3.514252047504e-17 0.000000000000e+00 -8.911815990966e-17 -2.553096583900e-17 0.000000000000e+00 -1.096650790714e-16 -4.552241496943e-18 0.000000000000e+00 -1.216433964146e-16 1.972434127981e-17 0.000000000000e+00 -1.155665452340e-16 3.267518853439e-17 0.000000000000e+00 -9.583711337958e-17 3.389625665022e-17 0.000000000000e+00 -7.552623258865e-17 2.972043849544e-17 0.000000000000e+00 -5.994540527657e-17 2.422856731149e-17 0.000000000000e+00 -4.876828776711e-17 1.922249952647e-17 0.000000000000e+00 -4.073924089122e-17 1.513236460037e-17 0.000000000000e+00 -3.477175511459e-17 1.190787258641e-17 0.000000000000e+00 -3.020083944042e-17 9.397835560776e-18 0.000000000000e+00 -2.663577397470e-17 7.452653348613e-18 0.000000000000e+00 -2.381704277165e-17 5.936377491859e-18 0.000000000000e+00 -2.156716582249e-17 4.746696383033e-18 0.000000000000e+00 -1.975807026611e-17 3.798986138766e-18 0.000000000000e+00 -1.829482134781e-17 3.015690799657e-18 0.000000000000e+00 -1.711223715877e-17 2.338424261931e-18 0.000000000000e+00 -1.616096827396e-17 -1.650054218771e-18 0.000000000000e+00 -5.682996561518e-18 -1.444988083676e-18 0.000000000000e+00 -5.988349827627e-18 -2.052199973453e-18 0.000000000000e+00 -5.690801238719e-18 -2.503929984717e-18 0.000000000000e+00 -5.674044223269e-18 -2.978127516447e-18 0.000000000000e+00 -5.618847838681e-18 -3.477295073632e-18 0.000000000000e+00 -5.525611777557e-18 -3.992320004424e-18 0.000000000000e+00 -5.408921909596e-18 -4.537363912505e-18 0.000000000000e+00 -5.262475315249e-18 -5.122078593445e-18 0.000000000000e+00 -5.073408101453e-18 -5.746813318789e-18 0.000000000000e+00 -4.830535666163e-18 -6.430699924446e-18 0.000000000000e+00 -4.506873907909e-18 -7.150444950336e-18 0.000000000000e+00 -4.082363496612e-18 -7.897461727661e-18 0.000000000000e+00 -3.542951162672e-18 -8.667502824740e-18 0.000000000000e+00 -2.850908640539e-18 -9.435098894528e-18 0.000000000000e+00 -1.975533329338e-18 -1.015721662725e-17 0.000000000000e+00 -8.871267103435e-19 -1.078568872496e-17 0.000000000000e+00 4.446888245487e-19 -1.125130481430e-17 0.000000000000e+00 2.033365065775e-18 -1.146214009585e-17 0.000000000000e+00 3.878962161252e-18 -1.133221965309e-17 0.000000000000e+00 5.974352582901e-18 -1.067173897506e-17 0.000000000000e+00 8.254189500197e-18 -9.293435530822e-18 0.000000000000e+00 1.044665671846e-17 -7.398697572588e-18 0.000000000000e+00 1.232023617680e-17 -5.249750878041e-18 0.000000000000e+00 1.422075996137e-17 -1.529142415772e-18 0.000000000000e+00 -6.348891717304e-18 -8.882746344950e-19 0.000000000000e+00 -9.224604270587e-18 -8.445722050965e-19 0.000000000000e+00 -8.998251723824e-18 1.721674107102e-18 0.000000000000e+00 -1.540297259150e-17 1.075076683524e-18 0.000000000000e+00 -1.477160320584e-17 1.317616261076e-18 0.000000000000e+00 -1.392621416016e-17 1.952219099621e-18 0.000000000000e+00 -1.451205486471e-17 2.652820330695e-18 0.000000000000e+00 -1.517647688161e-17 1.447060397671e-18 0.000000000000e+00 -1.307558692740e-17 1.553927237789e-18 0.000000000000e+00 -1.219043133460e-17 1.668415400976e-18 0.000000000000e+00 -1.121906692182e-17 2.614423404642e-18 0.000000000000e+00 -1.092906604754e-17 3.593229242445e-18 0.000000000000e+00 -1.079482147664e-17 2.384066950375e-18 0.000000000000e+00 -1.186001572933e-17 3.234650163601e-18 0.000000000000e+00 -1.164294602252e-17 2.243886895788e-18 0.000000000000e+00 -1.275029123159e-17 2.113671507686e-18 0.000000000000e+00 -1.363026531180e-17 3.028566910264e-18 0.000000000000e+00 -1.243230096103e-17 2.931242731089e-18 0.000000000000e+00 -1.329773343362e-17 2.828155993484e-18 0.000000000000e+00 -1.421245421322e-17 3.439399915806e-18 0.000000000000e+00 -1.594703959806e-17 3.641033496630e-18 0.000000000000e+00 -1.482882289565e-17 4.360409063035e-18 0.000000000000e+00 -1.689230242240e-17 4.619548356762e-18 0.000000000000e+00 -1.552446798693e-17 5.437302600816e-18 0.000000000000e+00 -1.805232532206e-17 6.762671296201e-18 0.000000000000e+00 -1.945749269604e-17 5.818559232769e-18 0.000000000000e+00 -1.639879798555e-17 7.176615933228e-18 0.000000000000e+00 -1.748705811527e-17 4.605390101157e-18 0.000000000000e+00 -1.078333904540e-17 4.071147001620e-18 0.000000000000e+00 -1.159513509871e-17 3.679135406855e-18 0.000000000000e+00 -1.219759171363e-17 3.697849509384e-18 0.000000000000e+00 -1.291941807722e-17 3.699126925009e-18 0.000000000000e+00 -1.382167805180e-17 5.726404742745e-18 0.000000000000e+00 -1.085638674946e-17 7.029910193523e-18 0.000000000000e+00 -1.100596879648e-17 8.621010601928e-18 0.000000000000e+00 -1.119443065060e-17 1.066563766775e-17 0.000000000000e+00 -1.120979941334e-17 1.303088900689e-17 0.000000000000e+00 -1.094289497511e-17 1.581765341143e-17 0.000000000000e+00 -1.037007580938e-17 1.914544285076e-17 0.000000000000e+00 -9.359160079233e-18 2.320129041967e-17 0.000000000000e+00 -7.616348981780e-18 8.440641480926e-18 0.000000000000e+00 -2.116695371418e-17 8.879418896868e-18 0.000000000000e+00 -1.873032864144e-17 1.059164673431e-17 0.000000000000e+00 -2.326758039999e-17 1.337356161457e-17 0.000000000000e+00 -2.588365290042e-17 1.699841605690e-17 0.000000000000e+00 -2.919521139120e-17 2.173278977817e-17 0.000000000000e+00 -3.349054192464e-17 2.796173455029e-17 0.000000000000e+00 -3.930252253970e-17 3.607746643866e-17 0.000000000000e+00 -4.779813922748e-17 4.574445759620e-17 0.000000000000e+00 -6.151229050981e-17 5.357855537416e-17 0.000000000000e+00 -8.401837476413e-17 5.025185707836e-17 0.000000000000e+00 -1.192547281486e-16 1.612754855766e-17 0.000000000000e+00 -1.518605973009e-16 -3.457834673100e-17 0.000000000000e+00 -1.446345580916e-16 -5.628867735747e-17 0.000000000000e+00 -1.064576584516e-16 -5.364141566133e-17 0.000000000000e+00 -7.438145670070e-17 -4.361991871065e-17 0.000000000000e+00 -5.566236917124e-17 -3.423090756011e-17 0.000000000000e+00 -4.432438605969e-17 -2.673312779583e-17 0.000000000000e+00 -3.679817139831e-17 -2.097328396360e-17 0.000000000000e+00 -3.138166090745e-17 -1.659146413904e-17 0.000000000000e+00 -2.725830102766e-17 -1.324438914641e-17 0.000000000000e+00 -2.400148587185e-17 -1.066008316743e-17 0.000000000000e+00 -2.136230056446e-17 -8.650620919435e-18 0.000000000000e+00 -1.918909862676e-17 -7.073271076941e-18 0.000000000000e+00 -1.738488572300e-17 -5.828982772756e-18 0.000000000000e+00 -1.587975784787e-17 -4.830863099540e-18 0.000000000000e+00 -1.461285937694e-17 -4.027742405717e-18 0.000000000000e+00 -1.354030609946e-17 -3.370102162196e-18 0.000000000000e+00 -1.263416124857e-17 -2.823431977461e-18 0.000000000000e+00 -1.186651619112e-17 -2.372384226608e-18 0.000000000000e+00 -1.121339567665e-17 -1.985853244454e-18 0.000000000000e+00 -1.066121646242e-17 -1.651929903801e-18 0.000000000000e+00 -1.019551151937e-17 -1.363861747450e-18 0.000000000000e+00 -9.807612271591e-18 -1.112203718397e-18 0.000000000000e+00 -9.495888904591e-18 1.105734024804e-17 0.000000000000e+00 -2.018675368163e-17 5.024820287266e-18 0.000000000000e+00 -1.173340836734e-17 4.372513528021e-18 0.000000000000e+00 -1.240858715998e-17 4.489352189315e-18 0.000000000000e+00 -1.333220983118e-17 4.635477671400e-18 0.000000000000e+00 -1.431544975882e-17 5.905213038204e-18 0.000000000000e+00 -1.470727043592e-17 7.347552491410e-18 0.000000000000e+00 -1.570935104003e-17 8.894176304845e-18 0.000000000000e+00 -1.660459020059e-17 1.096171836252e-17 0.000000000000e+00 -1.748735254902e-17 1.387342913404e-17 0.000000000000e+00 -2.194239956831e-17 1.754059950751e-17 0.000000000000e+00 -2.410281085758e-17 2.236722142091e-17 0.000000000000e+00 -2.680947921666e-17 2.884682133981e-17 0.000000000000e+00 -3.033400013616e-17 3.786957880341e-17 0.000000000000e+00 -3.523527824048e-17 5.092152935807e-17 0.000000000000e+00 -4.332624691112e-17 6.879318389110e-17 0.000000000000e+00 -6.032180269055e-17 9.396260388062e-17 0.000000000000e+00 -9.621125822637e-17 9.229911943943e-17 0.000000000000e+00 -1.778427017728e-16 -2.654060032607e-17 0.000000000000e+00 -2.151751611867e-16 -1.049046102101e-16 0.000000000000e+00 -1.466209498176e-16 -8.664255183248e-17 0.000000000000e+00 -7.567969417626e-17 -6.376385381373e-17 0.000000000000e+00 -5.083615566643e-17 -4.716301765863e-17 0.000000000000e+00 -3.932024725752e-17 -3.577488613094e-17 0.000000000000e+00 -3.282098793231e-17 -2.765023555564e-17 0.000000000000e+00 -2.839436031839e-17 -2.170703937926e-17 0.000000000000e+00 -2.506584448080e-17 -1.726914234249e-17 0.000000000000e+00 -2.240666144644e-17 -1.389268907156e-17 0.000000000000e+00 -2.020729079959e-17 -1.127928752799e-17 0.000000000000e+00 -1.835457199680e-17 -9.230034469591e-18 0.000000000000e+00 -1.678134794929e-17 -7.607984559381e-18 0.000000000000e+00 -1.543666512589e-17 -6.315210553727e-18 0.000000000000e+00 -1.428396814542e-17 -5.270634629421e-18 0.000000000000e+00 -1.329207758924e-17 -4.415506870714e-18 0.000000000000e+00 -1.244289960596e-17 -3.706673686447e-18 0.000000000000e+00 -1.171711167747e-17 -3.120331174955e-18 0.000000000000e+00 -1.109351214836e-17 -2.624696988581e-18 0.000000000000e+00 -1.055963148247e-17 -2.196868725453e-18 0.000000000000e+00 -1.010322133273e-17 -1.822477402887e-18 0.000000000000e+00 -9.717474313220e-18 -1.499978732985e-18 0.000000000000e+00 -9.391741817429e-18 5.267868012500e-18 0.000000000000e+00 -1.273542948184e-17 5.290909903124e-18 0.000000000000e+00 -1.366800846881e-17 1.364128644733e-17 0.000000000000e+00 -1.851013245566e-17 -7.753769750707e-19 0.000000000000e+00 -8.560215004157e-18 -8.923865001028e-19 0.000000000000e+00 -8.306625568366e-18 -1.000934571493e-18 0.000000000000e+00 -8.011327796946e-18 -1.093897541674e-18 0.000000000000e+00 -7.679223381274e-18 -8.932614166822e-19 0.000000000000e+00 -8.804035106940e-18 -1.162195500607e-18 0.000000000000e+00 -7.324742788721e-18 -1.200487410339e-18 0.000000000000e+00 -6.952105468372e-18 -1.558783696964e-18 0.000000000000e+00 -6.756684282057e-18 6.119587609040e-18 0.000000000000e+00 -1.200610155744e-17 6.243854295462e-18 0.000000000000e+00 -1.329601351851e-17 7.481420228335e-18 0.000000000000e+00 -1.408820304884e-17 8.689619862707e-18 0.000000000000e+00 -1.494214331615e-17 1.044918214272e-17 0.000000000000e+00 -1.519230111929e-17 7.449961412931e-18 0.000000000000e+00 -1.243543471598e-17 9.294120068911e-18 0.000000000000e+00 -1.317890325611e-17 1.180771960207e-17 0.000000000000e+00 -1.322246704755e-17 1.289747087867e-17 0.000000000000e+00 -1.560888801275e-17 1.459659315515e-17 0.000000000000e+00 -1.321104864473e-17 1.602522712953e-17 0.000000000000e+00 -1.609317332623e-17 1.710564829409e-17 0.000000000000e+00 -1.971073531119e-17 1.795971553899e-17 0.000000000000e+00 -1.299389574948e-17 2.218029253148e-17 0.000000000000e+00 -1.239094150757e-17 2.000181782478e-17 0.000000000000e+00 -1.651065613260e-17 2.161953968880e-17 0.000000000000e+00 -2.110204101579e-17 2.767132737821e-17 0.000000000000e+00 -1.109780787374e-17 2.519308526416e-17 0.000000000000e+00 -1.676374498250e-17 2.763673530050e-17 0.000000000000e+00 -2.274344612185e-17 3.591302665882e-17 0.000000000000e+00 -2.474826833350e-17 3.215892049108e-17 0.000000000000e+00 -1.674820790261e-17 3.490814338723e-17 0.000000000000e+00 -8.666867264158e-18 4.171283035248e-17 0.000000000000e+00 -1.627790261409e-17 4.837842998313e-17 0.000000000000e+00 -2.725635592166e-17 7.213690096251e-17 0.000000000000e+00 -2.949564295704e-17 1.013589171635e-16 0.000000000000e+00 -5.614769785704e-17 1.671284202270e-16 0.000000000000e+00 -1.291582648784e-16 6.156150351065e-17 0.000000000000e+00 -3.766740383677e-16 -2.835996512052e-16 0.000000000000e+00 -2.124808003524e-16 -1.510415646408e-16 0.000000000000e+00 -5.115478537239e-17 -8.928365720446e-17 0.000000000000e+00 -3.347806656772e-17 -6.124643496150e-17 0.000000000000e+00 -2.798878679945e-17 -4.472925104437e-17 0.000000000000e+00 -2.510994308977e-17 -3.410580024289e-17 0.000000000000e+00 -2.303801520611e-17 -2.662557676937e-17 0.000000000000e+00 -2.127257442529e-17 -2.115411718933e-17 0.000000000000e+00 -1.967224452528e-17 -1.703674316668e-17 0.000000000000e+00 -1.820820010228e-17 -1.385996728942e-17 0.000000000000e+00 -1.688016709522e-17 -1.136952450741e-17 0.000000000000e+00 -1.568620136823e-17 -9.396224064062e-18 0.000000000000e+00 -1.461483310171e-17 -7.816588309595e-18 0.000000000000e+00 -1.365859619303e-17 -6.538663071372e-18 0.000000000000e+00 -1.281482085081e-17 -5.491564089984e-18 0.000000000000e+00 -1.207131305515e-17 -4.621391820100e-18 0.000000000000e+00 -1.141805090204e-17 -3.899608909326e-18 0.000000000000e+00 -1.084729180244e-17 -3.293757398145e-18 0.000000000000e+00 -1.035258877285e-17 -2.772890267503e-18 0.000000000000e+00 -9.928064779767e-18 -2.316463068534e-18 0.000000000000e+00 -9.567887900630e-18 -1.927330041932e-18 0.000000000000e+00 -9.256277553504e-18 5.457798385275e-17 0.000000000000e+00 -1.408936538307e-17 4.481658700873e-17 0.000000000000e+00 -5.180062483608e-18 4.787841608049e-17 0.000000000000e+00 8.598793543310e-18 5.619694362395e-17 0.000000000000e+00 -1.982066751225e-18 6.955936150916e-17 0.000000000000e+00 -5.489616160048e-18 -4.449477710295e-16 0.000000000000e+00 -4.186511789158e-16 -1.792343161772e-16 0.000000000000e+00 4.718725807228e-17 -9.124060567653e-17 0.000000000000e+00 1.575003140412e-16 -4.202847360700e-17 0.000000000000e+00 8.826598038598e-17 -1.891349799865e-17 0.000000000000e+00 5.648077952044e-17 -8.044064244522e-18 0.000000000000e+00 3.996612514519e-17 -1.068038129840e-16 0.000000000000e+00 7.143403490772e-18 -8.728247994441e-17 0.000000000000e+00 6.038347637514e-17 -7.066785204491e-17 0.000000000000e+00 -6.675690868481e-18 -5.139466251762e-17 0.000000000000e+00 -1.259972365612e-17 -3.916286060033e-17 0.000000000000e+00 -1.494252040478e-17 -3.066286775564e-17 0.000000000000e+00 -1.572633797574e-17 -2.448308564453e-17 0.000000000000e+00 -1.572626473110e-17 -1.981810707434e-17 0.000000000000e+00 -1.532492533443e-17 -1.620729274118e-17 0.000000000000e+00 -1.473791756628e-17 -1.335924662887e-17 0.000000000000e+00 -1.407301145567e-17 -1.109151805849e-17 0.000000000000e+00 -1.338582005701e-17 -9.262922380534e-18 0.000000000000e+00 -1.271284296915e-17 -7.770527825339e-18 0.000000000000e+00 -1.207943981475e-17 -6.550063778832e-18 0.000000000000e+00 -1.149850165045e-17 -5.538470474183e-18 0.000000000000e+00 -1.096511768992e-17 -4.692320628881e-18 0.000000000000e+00 -1.047435095340e-17 -3.977970057652e-18 0.000000000000e+00 -1.002924764180e-17 -3.367395629539e-18 0.000000000000e+00 -9.635303528436e-18 -2.809927021493e-18 0.000000000000e+00 -9.327829320682e-18 -2.358284624885e-18 0.000000000000e+00 -9.088898999228e-18 -1.812482514651e-18 0.000000000000e+00 -6.057124846848e-18 -1.938787560600e-18 0.000000000000e+00 -6.492903776234e-18 -2.259821061064e-18 0.000000000000e+00 -6.119152385509e-18 -2.780680324577e-18 0.000000000000e+00 -6.114736849365e-18 -3.302176749761e-18 0.000000000000e+00 -6.035073359575e-18 -3.825839788381e-18 0.000000000000e+00 -5.934484700750e-18 -4.373419890176e-18 0.000000000000e+00 -5.828446834736e-18 -4.971286462307e-18 0.000000000000e+00 -5.703575880034e-18 -5.622155875547e-18 0.000000000000e+00 -5.537259130506e-18 -6.346544735910e-18 0.000000000000e+00 -5.300856476727e-18 -7.141466422430e-18 0.000000000000e+00 -4.977935896022e-18 -7.981988313155e-18 0.000000000000e+00 -4.539008417244e-18 -8.883015607886e-18 0.000000000000e+00 -3.952141317617e-18 -9.824654163519e-18 0.000000000000e+00 -3.183858401220e-18 -1.078036974983e-17 0.000000000000e+00 -2.186809676156e-18 -1.169680323680e-17 0.000000000000e+00 -9.101759739375e-19 -1.251582236061e-17 0.000000000000e+00 6.876223778818e-19 -1.313173470029e-17 0.000000000000e+00 2.631946457162e-18 -1.344963006886e-17 0.000000000000e+00 4.925584410861e-18 -1.340225060934e-17 0.000000000000e+00 7.719090353930e-18 -1.225524920301e-17 0.000000000000e+00 1.065164033207e-17 -1.017229819335e-17 0.000000000000e+00 1.321421368630e-17 -7.954547472764e-18 0.000000000000e+00 1.480715189246e-17 -6.282993542430e-18 0.000000000000e+00 1.803963085487e-17 -5.659764913920e-18 0.000000000000e+00 2.375812400714e-17 -1.210399633086e-18 0.000000000000e+00 -9.140138233003e-18 -1.006702223094e-18 0.000000000000e+00 -9.001298312796e-18 -1.577929911686e-18 0.000000000000e+00 -8.932610528843e-18 -2.030909066283e-18 0.000000000000e+00 -8.829290163703e-18 -1.142268592957e-17 0.000000000000e+00 2.823212295577e-17 -1.091062698227e-17 0.000000000000e+00 2.106233223458e-17 -1.047360347002e-17 0.000000000000e+00 1.653745687994e-17 -1.361842538851e-17 0.000000000000e+00 1.408855241607e-17 -1.411575609382e-17 0.000000000000e+00 1.789082030882e-17 -1.742654242965e-17 0.000000000000e+00 2.262374691782e-17 -2.488478431977e-18 0.000000000000e+00 -6.688353771876e-18 -3.115618892480e-18 0.000000000000e+00 -6.561409827555e-18 -3.655179777221e-18 0.000000000000e+00 -6.439577312752e-18 -4.159068763935e-18 0.000000000000e+00 -6.354760504716e-18 -4.745261432978e-18 0.000000000000e+00 -6.306128974150e-18 -5.409643260161e-18 0.000000000000e+00 -6.229991413420e-18 -6.155122522008e-18 0.000000000000e+00 -6.092133359440e-18 -6.992780261802e-18 0.000000000000e+00 -5.882235564059e-18 -7.916783295059e-18 0.000000000000e+00 -5.572016865093e-18 -8.921057566684e-18 0.000000000000e+00 -5.121683595159e-18 -1.001251777097e-17 0.000000000000e+00 -4.498199996306e-18 -1.117792057812e-17 0.000000000000e+00 -3.650658618426e-18 -1.238962774247e-17 0.000000000000e+00 -2.512206022705e-18 -1.358344358475e-17 0.000000000000e+00 -1.006016827887e-18 -1.467030284251e-17 0.000000000000e+00 9.366784070153e-19 -1.548471940017e-17 0.000000000000e+00 3.269163183480e-18 -1.612077139725e-17 0.000000000000e+00 6.107426937281e-18 -1.652947913889e-17 0.000000000000e+00 1.030450169180e-17 -1.815551222535e-17 0.000000000000e+00 1.572601298297e-17 -6.653633136011e-17 0.000000000000e+00 2.160139095698e-17 -4.618771054083e-17 0.000000000000e+00 4.539845334269e-17 -1.533246540930e-18 0.000000000000e+00 -7.174703083971e-18 -1.957837957889e-18 0.000000000000e+00 -6.988887980697e-18 -1.454535716524e-18 0.000000000000e+00 -7.568909859401e-18 -1.342170192705e-18 0.000000000000e+00 -7.933825933530e-18 -1.210960908793e-18 0.000000000000e+00 -8.265797502342e-18 -1.057714204459e-18 0.000000000000e+00 -8.555566940534e-18 -1.190187200943e-18 0.000000000000e+00 -8.825826565347e-18 -1.397952534414e-18 0.000000000000e+00 -8.557089070867e-18 -1.781771425158e-18 0.000000000000e+00 -8.537971492236e-18 -1.572164668081e-18 0.000000000000e+00 -8.221216982444e-18 -1.725131490578e-18 0.000000000000e+00 -7.856466011920e-18 -1.946024713106e-18 0.000000000000e+00 -8.172418893082e-18 -2.159643918276e-18 0.000000000000e+00 -8.481132802748e-18 -2.362002851442e-18 0.000000000000e+00 -8.732921123737e-18 -2.736627114549e-18 0.000000000000e+00 -8.818186324788e-18 -1.873603226462e-18 0.000000000000e+00 -7.456263362352e-18 -2.116204511064e-18 0.000000000000e+00 -7.797531604107e-18 -2.324683979775e-18 0.000000000000e+00 -8.133996622443e-18 -2.535247767810e-18 0.000000000000e+00 -8.443593590831e-18 -3.331632043618e-18 0.000000000000e+00 -8.897359553625e-18 -3.979475817080e-18 0.000000000000e+00 -9.280744173642e-18 -4.663981498728e-18 0.000000000000e+00 -9.625076927477e-18 -5.457787167984e-18 0.000000000000e+00 -9.970337608441e-18 -6.403256664574e-18 0.000000000000e+00 -1.032595246215e-17 -7.540500083299e-18 0.000000000000e+00 -1.069819627446e-17 -8.915425559053e-18 0.000000000000e+00 -1.108418728109e-17 -1.056970010609e-17 0.000000000000e+00 -1.145267912458e-17 -1.257566087626e-17 0.000000000000e+00 -1.176380246761e-17 -1.504023173879e-17 0.000000000000e+00 -1.196338101484e-17 -1.809256328329e-17 0.000000000000e+00 -1.196235170937e-17 -2.190732128611e-17 0.000000000000e+00 -1.162524931715e-17 -2.671852696494e-17 0.000000000000e+00 -1.070136374134e-17 -3.290426809291e-17 0.000000000000e+00 -8.689195722885e-18 -4.094947032816e-17 0.000000000000e+00 -4.599121408925e-18 -5.128772872922e-17 0.000000000000e+00 4.127010227724e-18 -2.389256925588e-18 0.000000000000e+00 -7.356393533493e-18 -2.482177224010e-18 0.000000000000e+00 -7.799079903634e-18 -2.700483310036e-18 0.000000000000e+00 -8.062733650149e-18 -2.960275984757e-18 0.000000000000e+00 -7.131858183129e-18 -2.830796681034e-18 0.000000000000e+00 -7.667600342150e-18 -3.523497677331e-18 0.000000000000e+00 -6.958565063542e-18 -3.956058353651e-18 0.000000000000e+00 -6.776701629860e-18 -4.439691898976e-18 0.000000000000e+00 -6.856211742464e-18 -2.974160209609e-18 0.000000000000e+00 -8.405493038784e-18 -3.069249796681e-18 0.000000000000e+00 -7.983854375198e-18 -3.402930035788e-18 0.000000000000e+00 -7.584459828130e-18 -4.003672802355e-18 0.000000000000e+00 -7.264684002924e-18 -3.472754421333e-18 0.000000000000e+00 -8.217218540570e-18 -3.992778511019e-18 0.000000000000e+00 -8.571313810535e-18 -4.014176374767e-18 0.000000000000e+00 -7.909249688964e-18 -4.590557243015e-18 0.000000000000e+00 -8.892972012594e-18 -4.562910423071e-18 0.000000000000e+00 -8.246535314053e-18 -5.261415426124e-18 0.000000000000e+00 -9.109403617913e-18 -5.045825528214e-18 0.000000000000e+00 -8.553956140531e-18 -6.138806505381e-18 0.000000000000e+00 -9.299051938190e-18 -7.186010717912e-18 0.000000000000e+00 -9.502007014817e-18 -8.432503564867e-18 0.000000000000e+00 -9.700397640700e-18 -9.904574119446e-18 0.000000000000e+00 -9.846827742876e-18 -1.164530572548e-17 0.000000000000e+00 -9.898659239601e-18 -1.373077481048e-17 0.000000000000e+00 -9.793467324926e-18 -1.624302076190e-17 0.000000000000e+00 -9.433924424229e-18 -1.929113534705e-17 0.000000000000e+00 -8.678953599883e-18 -2.298077026050e-17 0.000000000000e+00 -7.327445443176e-18 -2.739299851176e-17 0.000000000000e+00 -5.057023615033e-18 -3.263833723395e-17 0.000000000000e+00 -1.329463217796e-18 -3.759007995541e-17 0.000000000000e+00 5.482661799761e-18 -4.005294925134e-17 0.000000000000e+00 2.003651383607e-17 -2.423122516900e-17 0.000000000000e+00 3.267525140213e-17 -2.526862056887e-17 0.000000000000e+00 1.880459743309e-17 -3.022852421661e-17 0.000000000000e+00 1.107304069592e-17 -3.031725893379e-17 0.000000000000e+00 4.424150829436e-18 -2.657046758638e-17 0.000000000000e+00 5.888008066298e-19 -2.281600489766e-17 0.000000000000e+00 -2.712144972368e-18 -1.962433827979e-17 0.000000000000e+00 -5.108731420478e-18 -1.682703936960e-17 0.000000000000e+00 -6.635341803000e-18 -1.444365282547e-17 0.000000000000e+00 -7.571609118410e-18 -1.240509933496e-17 0.000000000000e+00 -8.122408811081e-18 -1.066338678963e-17 0.000000000000e+00 -8.416473914015e-18 -9.165883496583e-18 0.000000000000e+00 -8.538517916653e-18 -7.872617872332e-18 0.000000000000e+00 -8.548304079644e-18 -6.742413491641e-18 0.000000000000e+00 -8.484522065070e-18 -5.726674992599e-18 0.000000000000e+00 -8.377730617732e-18 -4.677769278974e-18 0.000000000000e+00 -7.552608648049e-18 -5.100301932544e-18 0.000000000000e+00 -8.049646567088e-18 -5.106097281290e-18 0.000000000000e+00 -6.894488615217e-18 -5.443934545231e-18 0.000000000000e+00 -7.567131494094e-18 -5.856297017696e-18 0.000000000000e+00 -6.859617860755e-18 -6.304916951194e-18 0.000000000000e+00 -7.598351173025e-18 -6.711441286219e-18 0.000000000000e+00 -6.766115984647e-18 -7.288311938206e-18 0.000000000000e+00 -7.579213949308e-18 -8.411676607049e-18 0.000000000000e+00 -7.469536164232e-18 -9.690501795490e-18 0.000000000000e+00 -7.243719543718e-18 -7.681454028822e-18 0.000000000000e+00 -6.594783675003e-18 -8.768685484029e-18 0.000000000000e+00 -6.311263859970e-18 -1.113790697976e-17 0.000000000000e+00 -6.848880487572e-18 -9.973585407389e-18 0.000000000000e+00 -5.871862958884e-18 -1.130755537512e-17 0.000000000000e+00 -5.227016178348e-18 -1.277172135966e-17 0.000000000000e+00 -4.306257324060e-18 -1.278542810420e-17 0.000000000000e+00 -6.217502959771e-18 -1.464289249877e-17 0.000000000000e+00 -5.251731151172e-18 -1.433048522207e-17 0.000000000000e+00 -3.011730586877e-18 -1.591888161177e-17 0.000000000000e+00 -1.215808879351e-18 -1.670455367275e-17 0.000000000000e+00 -3.802365245065e-18 -1.895787838085e-17 0.000000000000e+00 -1.638575486140e-18 -1.737825950840e-17 0.000000000000e+00 1.295474309397e-18 -1.800775964512e-17 0.000000000000e+00 3.849858621834e-18 -2.121666454644e-17 0.000000000000e+00 1.976814175058e-18 -2.510678095859e-17 0.000000000000e+00 5.930099723628e-18 -1.992554559062e-17 0.000000000000e+00 6.596759097495e-18 -2.246708948708e-17 0.000000000000e+00 1.130350259094e-17 3.593197713296e-19 0.000000000000e+00 -7.327965431614e-18 4.042395933842e-19 0.000000000000e+00 -6.445644006211e-18 4.309113137424e-19 0.000000000000e+00 -5.612818495138e-18 3.997721554091e-19 0.000000000000e+00 -4.835398916233e-18 3.521117226531e-19 0.000000000000e+00 -4.119254541971e-18 2.949964255095e-19 0.000000000000e+00 -3.492641311216e-18 2.524291630834e-19 0.000000000000e+00 -2.922687417595e-18 2.024016187837e-19 0.000000000000e+00 -2.434309620488e-18 1.565223404517e-19 0.000000000000e+00 -2.025866463858e-18 1.605688637607e-19 0.000000000000e+00 -1.658940891502e-18 3.300651521136e-19 0.000000000000e+00 -1.632858038647e-18 6.514677124943e-19 0.000000000000e+00 -1.563837334591e-18 9.727326699312e-19 0.000000000000e+00 -1.439650319905e-18 1.269700371613e-18 0.000000000000e+00 -1.269014561937e-18 1.543719507469e-18 0.000000000000e+00 -1.054185607548e-18 1.795438591253e-18 0.000000000000e+00 -7.907348238708e-19 2.005409491579e-18 0.000000000000e+00 -4.815541615244e-19 2.170067120755e-18 0.000000000000e+00 -1.298692950513e-19 2.286434945109e-18 0.000000000000e+00 2.577432799929e-19 2.339302443799e-18 0.000000000000e+00 6.748855715462e-19 2.322754594560e-18 0.000000000000e+00 1.116097701015e-18 2.219997901909e-18 0.000000000000e+00 1.569769180302e-18 1.990094657219e-18 0.000000000000e+00 2.041172099000e-18 1.794827250823e-18 0.000000000000e+00 2.453175901402e-18 1.442885358038e-18 0.000000000000e+00 2.865335894361e-18 1.737551065162e-18 0.000000000000e+00 3.333314816700e-18 2.092953460912e-18 0.000000000000e+00 3.882933863982e-18 2.531288191676e-18 0.000000000000e+00 4.544842280059e-18 3.072840627283e-18 0.000000000000e+00 5.343850110269e-18 3.734417259693e-18 0.000000000000e+00 6.333174678730e-18 4.569592420012e-18 0.000000000000e+00 7.549927249784e-18 5.619714890296e-18 0.000000000000e+00 9.083303302759e-18 6.997573655099e-18 0.000000000000e+00 1.096834481965e-17 8.905581974735e-18 0.000000000000e+00 1.331931052846e-17 1.164196291938e-17 0.000000000000e+00 1.645926167839e-17 5.848323175428e-19 0.000000000000e+00 -7.638665119885e-18 2.367587337027e-19 0.000000000000e+00 -1.883422228275e-18 2.040470904571e-18 0.000000000000e+00 2.871431206586e-18 1.293918342534e-18 0.000000000000e+00 -7.505742299448e-18 5.310321449237e-19 0.000000000000e+00 -1.891101176928e-18 2.370521750501e-18 0.000000000000e+00 3.285419058687e-18 3.120701876469e-19 0.000000000000e+00 -2.185015910072e-18 6.874310201965e-19 0.000000000000e+00 -6.926951997836e-18 2.248813475906e-18 0.000000000000e+00 2.472130810410e-18 2.449591314265e-18 0.000000000000e+00 2.875745728185e-18 2.844910237140e-18 0.000000000000e+00 3.749891246636e-18 2.881644052520e-18 0.000000000000e+00 3.134380676784e-18 3.472420836001e-18 0.000000000000e+00 4.346962149222e-18 4.237765512828e-18 0.000000000000e+00 5.120240946001e-18 5.159840553201e-18 0.000000000000e+00 6.074119820758e-18 6.284110713750e-18 0.000000000000e+00 7.227484664846e-18 7.718288751286e-18 0.000000000000e+00 8.549354034975e-18 9.757399259667e-18 0.000000000000e+00 9.932481147449e-18 1.350460570393e-17 0.000000000000e+00 1.101882262446e-17 2.527636942758e-18 0.000000000000e+00 1.995178899961e-18 2.792646652476e-18 0.000000000000e+00 2.495767087870e-18 2.711807313357e-18 0.000000000000e+00 1.467775776594e-18 2.761750859041e-18 0.000000000000e+00 9.276348767647e-19 2.716283051270e-18 0.000000000000e+00 4.158081234588e-19 2.594624979816e-18 0.000000000000e+00 -5.137917469256e-20 2.411878075333e-18 0.000000000000e+00 -4.716433371262e-19 2.181144242686e-18 0.000000000000e+00 -8.365888788830e-19 1.915380831038e-18 0.000000000000e+00 -1.150938381519e-18 1.616316826099e-18 0.000000000000e+00 -1.427193880469e-18 1.297463053351e-18 0.000000000000e+00 -1.674292191941e-18 9.021574323809e-19 0.000000000000e+00 -1.837622888464e-18 2.168816128068e-18 0.000000000000e+00 -7.341227562089e-18 3.132286708385e-18 0.000000000000e+00 -7.172789628385e-18 4.164081359478e-18 0.000000000000e+00 -6.968942519355e-18 5.235043324999e-18 0.000000000000e+00 -6.689782458125e-18 6.357461307656e-18 0.000000000000e+00 -6.298243776352e-18 7.552272825554e-18 0.000000000000e+00 -5.756112174519e-18 8.807308699588e-18 0.000000000000e+00 -5.020769943561e-18 1.011976390111e-17 0.000000000000e+00 -4.038952223103e-18 1.147758665802e-17 0.000000000000e+00 -2.748383606862e-18 1.281149405607e-17 0.000000000000e+00 -1.079072292972e-18 1.400693826055e-17 0.000000000000e+00 1.062759110937e-18 1.485570461734e-17 0.000000000000e+00 3.756725103206e-18 1.495371825751e-17 0.000000000000e+00 7.009265876453e-18 1.175252442148e-17 0.000000000000e+00 8.173922729579e-18 9.343811689178e-18 0.000000000000e+00 7.664092429747e-18 1.247970758413e-17 0.000000000000e+00 5.197768283930e-18 1.034990903766e-17 0.000000000000e+00 5.799091983742e-18 1.235261477935e-17 0.000000000000e+00 2.806217283554e-18 1.065264007896e-17 0.000000000000e+00 3.948773519369e-18 7.708255101794e-18 0.000000000000e+00 6.812904549796e-18 8.874244231265e-18 0.000000000000e+00 5.918587994529e-18 9.131874806675e-18 0.000000000000e+00 4.621806389575e-18 1.170896701221e-17 0.000000000000e+00 7.414392409070e-19 1.044976314309e-17 0.000000000000e+00 2.132473309757e-18 9.190818946081e-18 0.000000000000e+00 3.101586238093e-18 1.077770395265e-17 0.000000000000e+00 -9.787300465784e-19 9.702010750819e-18 0.000000000000e+00 -2.386773364075e-18 8.604212977540e-18 0.000000000000e+00 -3.522045881255e-18 7.516756089861e-18 0.000000000000e+00 -4.413757172491e-18 6.451824672619e-18 0.000000000000e+00 -5.093448028977e-18 5.416374536556e-18 0.000000000000e+00 -5.594573303824e-18 4.417018650808e-18 0.000000000000e+00 -5.956162203802e-18 3.421272837537e-18 0.000000000000e+00 -6.211888830876e-18 9.889229962331e-18 0.000000000000e+00 5.159320911237e-19 8.936506371053e-18 0.000000000000e+00 1.679932999347e-18 6.446546675371e-18 0.000000000000e+00 5.778483526748e-18 7.797473396446e-18 0.000000000000e+00 5.093062403224e-18 7.989834534783e-18 0.000000000000e+00 3.764839251138e-18 7.997983364779e-18 0.000000000000e+00 2.524120645830e-18 5.336675427056e-18 0.000000000000e+00 4.834179812211e-18 4.354726739361e-18 0.000000000000e+00 4.093172382064e-18 3.533343884296e-18 0.000000000000e+00 3.522207823283e-18 3.454063941414e-18 0.000000000000e+00 2.620164559630e-18 9.086076170206e-18 0.000000000000e+00 -9.018406368947e-19 8.175970939798e-18 0.000000000000e+00 -2.123266312992e-18 7.289459282826e-18 0.000000000000e+00 -3.155183367198e-18 6.385643244281e-18 0.000000000000e+00 -3.952394520942e-18 5.482062291170e-18 0.000000000000e+00 -4.552574682748e-18 4.581613454017e-18 0.000000000000e+00 -4.994281577334e-18 3.679510397584e-18 0.000000000000e+00 -5.303685369048e-18 2.446341962544e-18 0.000000000000e+00 -6.414882712609e-18 2.734868879391e-18 0.000000000000e+00 -5.502846761374e-18 1.507550769020e-18 0.000000000000e+00 -6.642016281451e-18 8.374539417370e-18 0.000000000000e+00 3.904722689185e-19 7.697805752590e-18 0.000000000000e+00 1.400618687815e-18 7.280172818961e-19 0.000000000000e+00 -2.244562347187e-18 4.091857893703e-19 0.000000000000e+00 -2.609723742353e-18 4.947660878922e-19 0.000000000000e+00 -3.142708859135e-18 5.768961273134e-19 0.000000000000e+00 -3.745516611768e-18 6.678058222557e-19 0.000000000000e+00 -4.422241727298e-18 7.638067472726e-19 0.000000000000e+00 -5.201882534796e-18 7.841236462506e-19 0.000000000000e+00 -6.074274400210e-18 7.504656189537e-18 0.000000000000e+00 -8.079145378101e-19 6.870584214388e-18 0.000000000000e+00 -2.040891801395e-18 6.165350411417e-18 0.000000000000e+00 -2.912343916250e-18 5.420740399131e-18 0.000000000000e+00 -3.581903729355e-18 4.642937589476e-18 0.000000000000e+00 -4.090957857746e-18 3.859724165522e-18 0.000000000000e+00 -4.458041560914e-18 3.052642568946e-18 0.000000000000e+00 -4.690427886089e-18 1.275411081484e-18 0.000000000000e+00 -2.223717768045e-18 1.702690982105e-18 0.000000000000e+00 -1.873027213151e-18 2.013901818524e-18 0.000000000000e+00 -1.555611621977e-18 2.327915187076e-18 0.000000000000e+00 -1.249388878932e-18 2.627907209292e-18 0.000000000000e+00 -8.856113709044e-19 2.896318255807e-18 0.000000000000e+00 -4.461774854766e-19 3.095689407928e-18 0.000000000000e+00 5.622544752744e-20 3.231219003889e-18 0.000000000000e+00 6.213626572086e-19 3.284314546666e-18 0.000000000000e+00 1.282568700844e-18 3.120703816724e-18 0.000000000000e+00 1.942880286758e-18 9.041827676507e-19 0.000000000000e+00 -2.734298262415e-18 1.056981272995e-18 0.000000000000e+00 -3.317773916933e-18 1.202597438047e-18 0.000000000000e+00 -3.950440926322e-18 1.393102866132e-18 0.000000000000e+00 -4.681599299753e-18 1.688899646979e-18 0.000000000000e+00 -5.614372535742e-18 2.221651326787e-18 0.000000000000e+00 -4.773443652084e-18 1.870511429540e-18 0.000000000000e+00 -4.084906686330e-18 1.645290952486e-18 0.000000000000e+00 -3.467218023919e-18 1.473390148021e-18 0.000000000000e+00 -2.857255033935e-18 1.926532630543e-18 0.000000000000e+00 -2.389576340127e-18 2.111665598932e-18 0.000000000000e+00 -1.934374304255e-18 2.437006817975e-18 0.000000000000e+00 -1.690950254366e-18 2.786979469723e-18 0.000000000000e+00 -1.358408917440e-18 3.162560096825e-18 0.000000000000e+00 -9.379410281933e-19 3.473652517035e-18 0.000000000000e+00 -4.090051030895e-19 3.686206279478e-18 0.000000000000e+00 2.009287224306e-19 3.881248812831e-18 0.000000000000e+00 8.860057278071e-19 3.990175900981e-18 0.000000000000e+00 1.842675088223e-18 6.623232392095e-18 0.000000000000e+00 4.077009154051e-18 7.159768110796e-18 0.000000000000e+00 3.075148706557e-18 6.981448920366e-18 0.000000000000e+00 2.189477042217e-18 5.348818376660e-18 0.000000000000e+00 3.450658550719e-18 6.285914181111e-18 0.000000000000e+00 2.756892596760e-18 4.317314596847e-18 0.000000000000e+00 2.906153349613e-18 5.242899559172e-18 0.000000000000e+00 2.143852699581e-18 6.179390475154e-18 0.000000000000e+00 1.900800998555e-18 6.690780476977e-18 0.000000000000e+00 1.220040091236e-18 7.183482133163e-18 0.000000000000e+00 4.159056212908e-19 4.712226170038e-18 0.000000000000e+00 1.112254782735e-18 5.708751268685e-18 0.000000000000e+00 1.061784548386e-18 6.368171889335e-18 0.000000000000e+00 5.219854938332e-19 4.365305115546e-18 0.000000000000e+00 3.606699465308e-19 6.509067316074e-18 0.000000000000e+00 -2.509504459643e-19 6.314478378044e-18 0.000000000000e+00 -1.144325506175e-18 4.123419906440e-18 0.000000000000e+00 -2.889391907956e-19 5.803243402625e-18 0.000000000000e+00 -2.000861422857e-18 3.875061312491e-18 0.000000000000e+00 -1.015955578103e-18 5.249476801813e-18 0.000000000000e+00 -2.719842450460e-18 4.609472383284e-18 0.000000000000e+00 -3.266703424742e-18 3.945269418182e-18 0.000000000000e+00 -3.673841759640e-18 3.262919441719e-18 0.000000000000e+00 -3.950005096461e-18 2.568413037807e-18 0.000000000000e+00 -4.092226542222e-18 2.232055218580e-18 0.000000000000e+00 -3.544738501660e-18 2.023854176514e-18 0.000000000000e+00 -3.017624597608e-18 2.789339729740e-18 0.000000000000e+00 -3.496038698358e-18 2.472181804478e-18 0.000000000000e+00 -3.135777660646e-18 2.447199464465e-18 0.000000000000e+00 -2.674094624429e-18 2.448999475746e-18 0.000000000000e+00 -2.160118553244e-18 3.374522202648e-18 0.000000000000e+00 -3.291039077643e-18 3.949768021509e-18 0.000000000000e+00 -2.974404924316e-18 4.505999838026e-18 0.000000000000e+00 -2.562608036290e-18 2.901434102872e-18 0.000000000000e+00 -2.949436748168e-18 3.404862218304e-18 0.000000000000e+00 -2.677506078423e-18 3.911885626925e-18 0.000000000000e+00 -2.349829931821e-18 2.917354383195e-18 0.000000000000e+00 -2.405611303402e-18 3.389475508205e-18 0.000000000000e+00 -2.096165796199e-18 2.882937405957e-18 0.000000000000e+00 -1.872933595829e-18 3.332795555859e-18 0.000000000000e+00 -1.510909108523e-18 3.899379710977e-18 0.000000000000e+00 -1.749045380469e-18 4.355150740594e-18 0.000000000000e+00 -2.033096825471e-18 4.504419242342e-18 0.000000000000e+00 -1.451461018102e-18 4.619519798628e-18 0.000000000000e+00 -7.286436205807e-19 4.693167866208e-18 0.000000000000e+00 -1.244658778887e-19 5.106909278159e-18 0.000000000000e+00 3.755787474802e-19 5.805572921721e-18 0.000000000000e+00 1.053846062860e-19 5.852299509570e-18 0.000000000000e+00 -5.661054456141e-19 5.255021096673e-18 0.000000000000e+00 -3.350916813361e-19 5.319686689680e-18 0.000000000000e+00 -1.167660853493e-18 4.958341742167e-18 0.000000000000e+00 -1.996178131473e-18 1.162573850403e-18 0.000000000000e+00 2.431011671433e-18 9.216756249468e-19 0.000000000000e+00 2.069685676058e-18 7.285775306324e-19 0.000000000000e+00 1.779210045546e-18 5.610553281648e-19 0.000000000000e+00 1.535468098674e-18 4.284739961354e-19 0.000000000000e+00 1.318510961331e-18 3.152332889537e-19 0.000000000000e+00 1.142467711664e-18 2.194225089625e-19 0.000000000000e+00 9.965934926489e-19 1.410623857131e-19 0.000000000000e+00 8.722949132789e-19 7.479296376308e-20 0.000000000000e+00 7.636018077998e-19 2.324813976884e-20 0.000000000000e+00 6.729239733734e-19 -2.485855172078e-20 0.000000000000e+00 5.910568385540e-19 -6.445916369557e-20 0.000000000000e+00 5.165549130955e-19 -9.452148030202e-20 0.000000000000e+00 4.569832526613e-19 -1.213779406888e-19 0.000000000000e+00 3.988662293913e-19 -1.446963021105e-19 0.000000000000e+00 3.563984743475e-19 -1.553232626369e-19 0.000000000000e+00 3.079832822550e-19 -1.706415787339e-19 0.000000000000e+00 2.675308981755e-19 -1.800828613341e-19 0.000000000000e+00 2.289178761809e-19 -1.849567828079e-19 0.000000000000e+00 2.000235933034e-19 -1.902808435261e-19 0.000000000000e+00 1.595770299900e-19 -1.985385703544e-19 0.000000000000e+00 1.423553233811e-19 -2.074598645171e-19 0.000000000000e+00 9.555248349595e-20 -1.998152583838e-19 0.000000000000e+00 7.476652778375e-20 -1.923006493598e-19 0.000000000000e+00 4.646984355835e-20 -1.863353342439e-19 0.000000000000e+00 2.974872283327e-20 -1.873821020126e-19 0.000000000000e+00 8.351586681480e-21 -2.208786706130e-19 0.000000000000e+00 3.407816014563e-21 -2.317324591180e-19 0.000000000000e+00 2.885620536593e-20 -2.265655590842e-19 0.000000000000e+00 5.073258459258e-20 -2.338046518465e-19 0.000000000000e+00 9.023812405455e-20 -2.231526498993e-19 0.000000000000e+00 1.223978567092e-19 -2.269917773745e-19 0.000000000000e+00 1.575805072207e-19 -2.270642047127e-19 0.000000000000e+00 1.924274935542e-19 -2.257913971941e-19 0.000000000000e+00 2.325500342219e-19 -2.134979392091e-19 0.000000000000e+00 2.756159422764e-19 -2.039868074159e-19 0.000000000000e+00 3.151292427598e-19 -1.882402492421e-19 0.000000000000e+00 3.657527226356e-19 -1.761189196259e-19 0.000000000000e+00 4.226116288919e-19 -1.578106700132e-19 0.000000000000e+00 4.792612647483e-19 -1.357014601429e-19 0.000000000000e+00 5.433420786479e-19 -1.040187531284e-19 0.000000000000e+00 6.219412690760e-19 -7.643961371558e-20 0.000000000000e+00 7.134442663907e-19 -2.742578674640e-20 0.000000000000e+00 8.167257224808e-19 2.177742620309e-20 0.000000000000e+00 9.454163470461e-19 8.602607219170e-20 0.000000000000e+00 1.090218574973e-18 1.591305287244e-19 0.000000000000e+00 1.259362276566e-18 2.458750188339e-19 0.000000000000e+00 1.459647076748e-18 3.254308830947e-19 0.000000000000e+00 1.672079815762e-18 4.352186806500e-19 0.000000000000e+00 1.916616990153e-18 5.614322920640e-19 0.000000000000e+00 2.202118776040e-18 7.072502436737e-19 0.000000000000e+00 2.544325495061e-18 8.816248737276e-19 0.000000000000e+00 2.950558700832e-18 1.084071118385e-18 0.000000000000e+00 3.431425769425e-18 1.315176875020e-18 0.000000000000e+00 4.009369634635e-18 1.589344659199e-18 0.000000000000e+00 4.699918160137e-18 1.920769379164e-18 0.000000000000e+00 5.542157790236e-18 2.314191078767e-18 0.000000000000e+00 6.570815215431e-18 -8.665956556797e-21 0.000000000000e+00 7.264230225701e-19 -1.577311195433e-19 0.000000000000e+00 3.854867827613e-19 -3.947410732508e-20 0.000000000000e+00 6.655191828031e-19 3.601364697252e-20 0.000000000000e+00 1.576224271308e-18 -1.518509762885e-19 0.000000000000e+00 1.668706266043e-18 -4.061232750393e-19 0.000000000000e+00 1.697366193791e-18 -6.472725540145e-19 0.000000000000e+00 1.698822355441e-18 -8.889567813715e-19 0.000000000000e+00 1.666344420907e-18 -1.123413336046e-18 0.000000000000e+00 1.599739334779e-18 -1.345791043939e-18 0.000000000000e+00 1.498535615004e-18 -1.553452876616e-18 0.000000000000e+00 1.363575332410e-18 -1.737262523882e-18 0.000000000000e+00 1.200788877516e-18 -1.891813840101e-18 0.000000000000e+00 1.015476057849e-18 -2.015897850072e-18 0.000000000000e+00 8.111594070215e-19 -2.111676638646e-18 0.000000000000e+00 5.933046243930e-19 -2.174210421420e-18 0.000000000000e+00 3.673706184297e-19 -2.208166411322e-18 0.000000000000e+00 1.388812961522e-19 -2.211505861519e-18 0.000000000000e+00 -8.761635399424e-20 -2.187700114339e-18 0.000000000000e+00 -3.111163096037e-19 -2.141135982292e-18 0.000000000000e+00 -5.261198869751e-19 -2.065109982811e-18 0.000000000000e+00 -7.283556139252e-19 -1.965544088497e-18 0.000000000000e+00 -9.185384745554e-19 -1.855791123854e-18 0.000000000000e+00 -1.095647894545e-18 -1.730594599477e-18 0.000000000000e+00 -1.258034656833e-18 -1.590770116759e-18 0.000000000000e+00 -1.404858630849e-18 -1.437568950813e-18 0.000000000000e+00 -1.536056758293e-18 -1.277723659439e-18 0.000000000000e+00 -1.651214794644e-18 -1.109337193365e-18 0.000000000000e+00 -1.748718447440e-18 -9.308981736567e-19 0.000000000000e+00 -1.829656199940e-18 -7.459445589812e-19 0.000000000000e+00 -1.895991590573e-18 -5.608219596572e-19 0.000000000000e+00 -1.950047105007e-18 -3.758028544946e-19 0.000000000000e+00 -1.986664574360e-18 -1.913103278165e-19 0.000000000000e+00 -2.007629033566e-18 -8.863565881256e-20 0.000000000000e+00 -2.016426151386e-18 -8.414499461651e-20 0.000000000000e+00 -2.216896245955e-18 -1.088948920369e-19 0.000000000000e+00 -2.428958396195e-18 -1.301969556759e-19 0.000000000000e+00 -2.662184851943e-18 -1.393142156303e-19 0.000000000000e+00 -2.918248113322e-18 -1.419335603714e-19 0.000000000000e+00 -3.199022467015e-18 -1.503853127360e-19 0.000000000000e+00 -3.499416682947e-18 -1.512118615210e-19 0.000000000000e+00 -3.806819101252e-18 -1.435730761538e-19 0.000000000000e+00 -4.128090464898e-18 -1.330704738696e-19 0.000000000000e+00 -4.461845431554e-18 -1.319896966834e-19 0.000000000000e+00 -2.141798468074e-18 -2.169729975776e-19 0.000000000000e+00 -4.579684900818e-18 1.299744482302e-18 0.000000000000e+00 7.269312689979e-18 -4.696191751918e-19 0.000000000000e+00 -4.526281312186e-18 -2.937563423918e-19 0.000000000000e+00 -2.150639920728e-18 -1.718581188470e-19 0.000000000000e+00 -2.302338301282e-18 1.164667108761e-18 0.000000000000e+00 6.231070957646e-18 -2.476706868038e-19 0.000000000000e+00 -4.306515378024e-18 3.286344808982e-19 0.000000000000e+00 7.643746773413e-18 5.885648837041e-19 0.000000000000e+00 6.724797761611e-18 9.536331552746e-19 0.000000000000e+00 5.317290508953e-18 3.551881361221e-19 0.000000000000e+00 5.877193429374e-18 7.679694265659e-19 0.000000000000e+00 4.511255766764e-18 6.323622073978e-19 0.000000000000e+00 3.839248321518e-18 5.286095464336e-19 0.000000000000e+00 3.299738143271e-18 4.299088946677e-19 0.000000000000e+00 2.858306210588e-18 3.257938910143e-19 0.000000000000e+00 2.492560867852e-18 2.084516121873e-19 0.000000000000e+00 2.181765220095e-18 6.005466275383e-20 0.000000000000e+00 1.867966057034e-18 -9.941793578605e-19 0.000000000000e+00 7.560540446624e-18 -3.382154924717e-19 0.000000000000e+00 6.603845637680e-18 -2.286893235729e-18 0.000000000000e+00 7.301869482035e-18 -3.511073169686e-18 0.000000000000e+00 6.805301867037e-18 -4.573366156535e-18 0.000000000000e+00 6.092741144433e-18 -5.422400823344e-18 0.000000000000e+00 5.213032272877e-18 -6.039309834212e-18 0.000000000000e+00 4.229533321147e-18 -6.445740446281e-18 0.000000000000e+00 3.206730616512e-18 -6.656042614376e-18 0.000000000000e+00 2.214060077677e-18 -6.696480852971e-18 0.000000000000e+00 1.273251594588e-18 -6.608180421116e-18 0.000000000000e+00 4.057983460370e-19 -6.415973738664e-18 0.000000000000e+00 -3.659692689932e-19 -6.142856154649e-18 0.000000000000e+00 -1.051445966975e-18 -5.811854558620e-18 0.000000000000e+00 -1.649914823550e-18 -5.431800953204e-18 0.000000000000e+00 -2.168270536155e-18 -5.025297969989e-18 0.000000000000e+00 -2.608709473861e-18 -4.613372258670e-18 0.000000000000e+00 -2.977969173420e-18 -4.199738414930e-18 0.000000000000e+00 -3.290677220017e-18 -3.792052677909e-18 0.000000000000e+00 -3.554279343613e-18 -3.396521621823e-18 0.000000000000e+00 -3.773836700323e-18 -3.009608987744e-18 0.000000000000e+00 -3.952963015763e-18 -2.631636388628e-18 0.000000000000e+00 -4.093455936527e-18 -2.254459594061e-18 0.000000000000e+00 -4.202741790020e-18 -1.882216685563e-18 0.000000000000e+00 -4.287111854258e-18 -1.518300705072e-18 0.000000000000e+00 -4.356694262242e-18 -1.145107844517e-18 0.000000000000e+00 -4.414389695739e-18 -7.932906086694e-19 0.000000000000e+00 -4.465705569601e-18 -5.469429500711e-19 0.000000000000e+00 -4.198856428654e-18 -4.860181430052e-19 0.000000000000e+00 -2.140854727865e-18 -6.950957452290e-19 0.000000000000e+00 -2.101616943643e-18 -9.003736760604e-19 0.000000000000e+00 -2.036966664794e-18 -1.094283367742e-18 0.000000000000e+00 -1.953911123564e-18 -1.283510536965e-18 0.000000000000e+00 -1.856824625672e-18 -1.461147289561e-18 0.000000000000e+00 -1.742833652922e-18 -1.632734211121e-18 0.000000000000e+00 -1.611345457301e-18 -1.793176425598e-18 0.000000000000e+00 -1.462789805373e-18 -1.941424599631e-18 0.000000000000e+00 -1.296095676177e-18 -2.071845358268e-18 0.000000000000e+00 -1.112692067788e-18 -2.189723139878e-18 0.000000000000e+00 -9.126410683772e-19 -2.290364355713e-18 0.000000000000e+00 -6.978790527986e-19 -2.363818433082e-18 0.000000000000e+00 -4.689230991062e-19 -2.408657138453e-18 0.000000000000e+00 -2.247128577437e-19 -2.423641320467e-18 0.000000000000e+00 2.796659828164e-20 -2.406863406238e-18 0.000000000000e+00 2.845236546515e-19 -2.356369210273e-18 0.000000000000e+00 5.417549497603e-19 -2.269324614090e-18 0.000000000000e+00 7.937417346208e-19 -2.145698289742e-18 0.000000000000e+00 1.032517320709e-18 -1.990676498605e-18 0.000000000000e+00 1.253563823411e-18 -1.800984932387e-18 0.000000000000e+00 1.453830191167e-18 -1.577913081559e-18 0.000000000000e+00 1.625233320131e-18 -1.330869233662e-18 0.000000000000e+00 1.760220766300e-18 -1.070222762027e-18 0.000000000000e+00 1.854154349227e-18 -8.021029445970e-19 0.000000000000e+00 1.907485178284e-18 -5.324144864834e-19 0.000000000000e+00 1.924623453912e-18 -2.533193495561e-19 0.000000000000e+00 1.910906818618e-18 -7.271550462714e-20 0.000000000000e+00 2.143707388313e-18 5.120756603511e-20 0.000000000000e+00 2.424818584197e-18 -3.879545450521e-19 0.000000000000e+00 2.165544962433e-18 -2.371353427103e-19 0.000000000000e+00 2.416073645387e-18 -6.833175878758e-19 0.000000000000e+00 2.163916118055e-18 1.317825600771e-19 0.000000000000e+00 2.726152992441e-18 -1.173844066216e-19 0.000000000000e+00 2.629284717841e-18 -5.347793679296e-19 0.000000000000e+00 2.426478264776e-18 -3.655721836064e-19 0.000000000000e+00 2.675925255365e-18 -9.846213743003e-19 0.000000000000e+00 2.133409482970e-18 -8.561672075302e-19 0.000000000000e+00 2.429575882464e-18 -1.288881867367e-18 0.000000000000e+00 2.056801410314e-18 -1.203002526987e-18 0.000000000000e+00 2.392207534285e-18 -1.582936369715e-18 0.000000000000e+00 1.927491151340e-18 -1.854218308850e-18 0.000000000000e+00 1.749260263750e-18 -2.087390540358e-18 0.000000000000e+00 1.532247551950e-18 -2.277674068788e-18 0.000000000000e+00 1.288759085583e-18 -2.433041032646e-18 0.000000000000e+00 1.025092933560e-18 -2.551239435888e-18 0.000000000000e+00 7.453440048266e-19 -2.623802204956e-18 0.000000000000e+00 4.572684701998e-19 -2.657263255893e-18 0.000000000000e+00 1.669761938198e-19 -2.653076747568e-18 0.000000000000e+00 -1.199157850351e-19 -2.613570435036e-18 0.000000000000e+00 -3.963138927550e-19 -2.539216211517e-18 0.000000000000e+00 -6.574868166354e-19 -2.436804349297e-18 0.000000000000e+00 -9.010693853876e-19 -2.310690138074e-18 0.000000000000e+00 -1.126403852444e-18 -2.171031159529e-18 0.000000000000e+00 -1.331587797419e-18 -2.017078251508e-18 0.000000000000e+00 -1.517161581432e-18 -1.847680845420e-18 0.000000000000e+00 -1.686611843373e-18 -1.662959411419e-18 0.000000000000e+00 -1.835047199468e-18 -1.474623801793e-18 0.000000000000e+00 -1.962781971088e-18 -1.277309729630e-18 0.000000000000e+00 -2.076783615242e-18 -1.072046597983e-18 0.000000000000e+00 -2.177294663852e-18 -8.538850276333e-19 0.000000000000e+00 -2.261645325537e-18 -1.563969287114e-18 0.000000000000e+00 2.282846980961e-18 -1.892796879351e-18 0.000000000000e+00 2.094035880873e-18 -2.179182100311e-18 0.000000000000e+00 1.858429701921e-18 -2.414717323518e-18 0.000000000000e+00 1.591275940882e-18 -2.604767070125e-18 0.000000000000e+00 1.297418445271e-18 -2.756193058910e-18 0.000000000000e+00 9.863198404976e-19 -2.859351722388e-18 0.000000000000e+00 6.641947644918e-19 -2.915497763449e-18 0.000000000000e+00 3.344153810758e-19 -2.925644535405e-18 0.000000000000e+00 5.350981761391e-21 -2.890238548995e-18 0.000000000000e+00 -3.100889443886e-19 -2.816509671296e-18 0.000000000000e+00 -6.046585137180e-19 -2.709877010905e-18 0.000000000000e+00 -8.783654872483e-19 -2.577616593650e-18 0.000000000000e+00 -1.130818903524e-18 -2.425186426080e-18 0.000000000000e+00 -1.363393433470e-18 -2.260527115065e-18 0.000000000000e+00 -1.573589058050e-18 -2.083794818949e-18 0.000000000000e+00 -1.761817111401e-18 -1.887029242198e-18 0.000000000000e+00 -1.929077795163e-18 -1.681102314895e-18 0.000000000000e+00 -2.073408541037e-18 -1.477198232654e-18 0.000000000000e+00 -2.198338673528e-18 -1.264760855217e-18 0.000000000000e+00 -2.311361458851e-18 -1.041115441088e-18 0.000000000000e+00 -2.414740204889e-18 -6.799422408221e-19 0.000000000000e+00 2.716991730267e-18 1.656257414392e-19 0.000000000000e+00 3.106630902039e-18 -1.482145914148e-19 0.000000000000e+00 2.894107941150e-18 -4.722346299483e-19 0.000000000000e+00 2.981366075498e-18 1.637215193893e-19 0.000000000000e+00 3.583148749645e-18 1.699347714228e-19 0.000000000000e+00 4.205534163962e-18 2.083796841492e-19 0.000000000000e+00 4.978920333087e-18 -7.014183211140e-19 0.000000000000e+00 5.495836376213e-18 -6.207123381804e-19 0.000000000000e+00 -2.323793645094e-18 -7.951030966069e-19 0.000000000000e+00 -2.508462299981e-18 -1.049810089171e-18 0.000000000000e+00 2.736756141530e-18 -8.145255075457e-19 0.000000000000e+00 3.055650692356e-18 -1.505266326214e-18 0.000000000000e+00 2.728515911648e-18 -1.901592243788e-18 0.000000000000e+00 2.488652777780e-18 -2.267300033054e-18 0.000000000000e+00 2.243882772746e-18 -2.551998719961e-18 0.000000000000e+00 1.944102647637e-18 -2.786310809218e-18 0.000000000000e+00 1.619370838550e-18 -2.970994182760e-18 0.000000000000e+00 1.276384136872e-18 -3.112193614167e-18 0.000000000000e+00 9.174223426574e-19 -3.198912539422e-18 0.000000000000e+00 5.437650543172e-19 -3.232727878337e-18 0.000000000000e+00 1.663058355916e-19 -3.203748459176e-18 0.000000000000e+00 -2.008302544709e-19 -3.124192547451e-18 0.000000000000e+00 -5.407290397367e-19 -3.011853459611e-18 0.000000000000e+00 -8.499455968073e-19 -2.869024986770e-18 0.000000000000e+00 -1.131042032891e-18 -2.707712572677e-18 0.000000000000e+00 -1.385822785475e-18 -2.530382812438e-18 0.000000000000e+00 -1.620931288926e-18 -2.344386105809e-18 0.000000000000e+00 -1.840252904609e-18 -2.132965497973e-18 0.000000000000e+00 -2.026969499032e-18 -1.909139155979e-18 0.000000000000e+00 -2.184250479331e-18 -1.689527448434e-18 0.000000000000e+00 -2.323318282530e-18 -1.469324767337e-18 0.000000000000e+00 -2.446303309019e-18 -1.247184991371e-18 0.000000000000e+00 -2.558354026405e-18 -1.012890910109e-18 0.000000000000e+00 -2.671880307995e-18 -3.807135120345e-19 0.000000000000e+00 -2.340472565265e-18 -2.176631217784e-19 0.000000000000e+00 3.263973000382e-18 -5.802377563668e-19 0.000000000000e+00 3.306946164230e-18 -4.361678293208e-19 0.000000000000e+00 3.759020702481e-18 -2.211144116397e-19 0.000000000000e+00 -2.517764793690e-18 -2.479248602564e-19 0.000000000000e+00 -2.780356408039e-18 -2.529336294780e-19 0.000000000000e+00 -3.057662373370e-18 -2.617860445753e-19 0.000000000000e+00 -3.352448948135e-18 -2.797304963072e-19 0.000000000000e+00 -3.658472996904e-18 -2.765315002762e-19 0.000000000000e+00 -3.988096614194e-18 -8.974622081344e-19 0.000000000000e+00 -4.113821826953e-18 -1.265952312224e-18 0.000000000000e+00 -4.047249725166e-18 -1.637502282392e-18 0.000000000000e+00 -3.988759757097e-18 -1.994884769374e-18 0.000000000000e+00 -3.920352173736e-18 -2.351041863828e-18 0.000000000000e+00 -3.830922893637e-18 -2.693378519325e-18 0.000000000000e+00 -3.703139615633e-18 -3.043402087618e-18 0.000000000000e+00 -3.537553372250e-18 -3.397104198181e-18 0.000000000000e+00 -3.338909057978e-18 -3.754522606414e-18 0.000000000000e+00 -3.093024376237e-18 -4.126999817800e-18 0.000000000000e+00 -2.796565968310e-18 -4.497789359448e-18 0.000000000000e+00 -2.456010406604e-18 -4.855071498847e-18 0.000000000000e+00 -2.062056106903e-18 -5.196880041088e-18 0.000000000000e+00 -1.611971189656e-18 -5.488984728193e-18 0.000000000000e+00 -1.097325245307e-18 -5.723182699550e-18 0.000000000000e+00 -5.096548799581e-19 -5.896110830387e-18 0.000000000000e+00 1.399988832418e-19 -5.960427597529e-18 0.000000000000e+00 8.660996779023e-19 -5.939695741593e-18 0.000000000000e+00 1.655285935461e-18 -5.775787561409e-18 0.000000000000e+00 2.489413357883e-18 -5.444948700036e-18 0.000000000000e+00 3.360061236890e-18 -4.977581738785e-18 0.000000000000e+00 4.211150371702e-18 -4.333723957946e-18 0.000000000000e+00 4.984722424221e-18 -3.511800317331e-18 0.000000000000e+00 5.630392843159e-18 -2.530434577845e-18 0.000000000000e+00 6.104070295502e-18 -1.438445481957e-18 0.000000000000e+00 6.412373477360e-18 -5.023402211789e-19 0.000000000000e+00 -2.596265871294e-18 -7.568958001987e-19 0.000000000000e+00 -2.789548064660e-18 -4.957953933626e-19 0.000000000000e+00 -2.914264890326e-18 -4.978588549420e-19 0.000000000000e+00 -3.203841879440e-18 -7.352621954245e-19 0.000000000000e+00 -3.071037644986e-18 -5.223885333786e-19 0.000000000000e+00 -3.499198282952e-18 -7.332380240162e-19 0.000000000000e+00 -3.338293693863e-18 -6.172795630326e-19 0.000000000000e+00 -3.823441355572e-18 -7.618323434144e-19 0.000000000000e+00 -3.560600744095e-18 -9.952088086201e-19 0.000000000000e+00 -3.730911183603e-18 -1.388753541202e-18 0.000000000000e+00 -3.695846195721e-18 -1.761471260882e-18 0.000000000000e+00 -3.636742136829e-18 -2.101017647268e-18 0.000000000000e+00 -3.576653398341e-18 -2.417050018266e-18 0.000000000000e+00 -3.486207424430e-18 -2.722285671553e-18 0.000000000000e+00 -3.351136547280e-18 -3.041017468301e-18 0.000000000000e+00 -3.163137444062e-18 -3.346407235464e-18 0.000000000000e+00 -2.916575613199e-18 -3.676271531579e-18 0.000000000000e+00 -2.635524773117e-18 -4.017972787551e-18 0.000000000000e+00 -2.322680908643e-18 -4.342811735114e-18 0.000000000000e+00 -1.971292901241e-18 -4.652662149359e-18 0.000000000000e+00 -1.571571192471e-18 -4.921807976643e-18 0.000000000000e+00 -1.117544646452e-18 -5.131376110512e-18 0.000000000000e+00 -6.112175469752e-19 -5.295900291458e-18 0.000000000000e+00 -6.321279215626e-20 -5.358494733324e-18 0.000000000000e+00 5.400077498052e-19 -5.331282955012e-18 0.000000000000e+00 1.198477063250e-18 -5.211736788624e-18 0.000000000000e+00 1.904685389794e-18 -4.932405818181e-18 0.000000000000e+00 2.648833469721e-18 -4.543648856270e-18 0.000000000000e+00 3.386604900394e-18 -4.063608078771e-18 0.000000000000e+00 4.093584478445e-18 -3.440492560003e-18 0.000000000000e+00 4.683155323922e-18 -2.680535165685e-18 0.000000000000e+00 5.125566531206e-18 -1.775387075516e-18 0.000000000000e+00 5.402798948732e-18 -9.923251733805e-19 0.000000000000e+00 -2.949879126390e-18 -1.236592167212e-18 0.000000000000e+00 -2.823073737090e-18 -1.459645257758e-18 0.000000000000e+00 -2.698478298650e-18 -9.624760423321e-19 0.000000000000e+00 -3.225478819028e-18 -9.226103429683e-19 0.000000000000e+00 -3.468548238743e-18 -1.175679790322e-18 0.000000000000e+00 -3.427207654264e-18 -1.680325435416e-18 0.000000000000e+00 -2.581564331194e-18 -1.921114559404e-18 0.000000000000e+00 -2.453276586796e-18 -2.157536437153e-18 0.000000000000e+00 -2.303383128795e-18 -2.426736721515e-18 0.000000000000e+00 -2.142136041324e-18 -2.627973420507e-18 0.000000000000e+00 -1.894431625260e-18 -2.822873868051e-18 0.000000000000e+00 -1.665136126879e-18 -3.012692013726e-18 0.000000000000e+00 -1.413577168326e-18 -3.192166877852e-18 0.000000000000e+00 -1.129466545535e-18 -3.348665147011e-18 0.000000000000e+00 -8.114189161764e-19 -3.476146897204e-18 0.000000000000e+00 -4.574096237775e-19 -3.565377589136e-18 0.000000000000e+00 -5.875117494725e-20 -3.576479806118e-18 0.000000000000e+00 3.689228227207e-19 -3.505046455151e-18 0.000000000000e+00 8.067656987502e-19 -3.374954394531e-18 0.000000000000e+00 1.221102381047e-18 -3.197471545491e-18 0.000000000000e+00 1.617128873477e-18 -2.971918966447e-18 0.000000000000e+00 1.990256472103e-18 -2.695993862289e-18 0.000000000000e+00 2.348142394718e-18 -2.342595377870e-18 0.000000000000e+00 2.735608619072e-18 -1.225591404364e-18 0.000000000000e+00 -3.113973313399e-18 -1.471019155967e-18 0.000000000000e+00 -2.964373319022e-18 -1.654642546782e-18 0.000000000000e+00 -2.806214979501e-18 -1.918936183642e-18 0.000000000000e+00 -2.764607519826e-18 -1.521813724789e-18 0.000000000000e+00 -3.316056868893e-18 -1.892509559790e-18 0.000000000000e+00 -3.318856033729e-18 -1.748250603365e-18 0.000000000000e+00 -3.036514378133e-18 -2.202221609574e-18 0.000000000000e+00 -3.279956824069e-18 -2.042892447207e-18 0.000000000000e+00 -3.052334917205e-18 -2.454811086257e-18 0.000000000000e+00 -3.192434329928e-18 -2.271669218317e-18 0.000000000000e+00 -3.057542344322e-18 -2.207388752140e-18 0.000000000000e+00 -2.841488336950e-18 -2.163850391905e-18 0.000000000000e+00 -2.577860383705e-18 -2.713970388868e-18 0.000000000000e+00 -3.037436060064e-18 -2.449837726696e-18 0.000000000000e+00 -2.924340515165e-18 -2.409835966925e-18 0.000000000000e+00 -2.669492823770e-18 -2.388660019885e-18 0.000000000000e+00 -2.432151086396e-18 -2.652641463404e-18 0.000000000000e+00 -2.743112903166e-18 -2.580829896033e-18 0.000000000000e+00 -2.530048805056e-18 -2.581712324172e-18 0.000000000000e+00 -2.344846070628e-18 -2.728457548073e-18 0.000000000000e+00 -2.179386319767e-18 -2.913849675679e-18 0.000000000000e+00 -1.954198281358e-18 -2.967594870521e-18 0.000000000000e+00 -2.806279371725e-18 -2.810654197154e-18 0.000000000000e+00 -2.462801577557e-18 -2.970498026116e-18 0.000000000000e+00 -2.226994110970e-18 -3.220281983626e-18 0.000000000000e+00 -2.474761588798e-18 -3.580348250883e-18 0.000000000000e+00 -2.194544504164e-18 -3.221417379488e-18 0.000000000000e+00 -2.063508388043e-18 -3.888849278155e-18 0.000000000000e+00 -1.885728609826e-18 -4.164946646294e-18 0.000000000000e+00 -1.531679542192e-18 -4.418224367934e-18 0.000000000000e+00 -1.128079262950e-18 -3.133203911905e-18 0.000000000000e+00 -1.722994541827e-18 -3.483238469926e-18 0.000000000000e+00 -1.801879504152e-18 -3.352838878830e-18 0.000000000000e+00 -1.446802101176e-18 -3.734544225154e-18 0.000000000000e+00 -1.488700945629e-18 -3.554581295854e-18 0.000000000000e+00 -1.128645817516e-18 -3.961965194321e-18 0.000000000000e+00 -1.130168917977e-18 -4.618498375445e-18 0.000000000000e+00 -6.844117403186e-19 -4.159488404791e-18 0.000000000000e+00 -7.284225527352e-19 -3.730855678441e-18 0.000000000000e+00 -7.693658214218e-19 -3.884047813093e-18 0.000000000000e+00 -3.691449819598e-19 -4.319408132384e-18 0.000000000000e+00 -2.946770109702e-19 -4.782193233647e-18 0.000000000000e+00 -2.240832448782e-19 -4.034236397794e-18 0.000000000000e+00 1.221134880325e-19 -4.488180857152e-18 0.000000000000e+00 7.246366294567e-20 -4.858769898419e-18 0.000000000000e+00 2.786505016653e-19 -3.945733988076e-18 0.000000000000e+00 6.569352990482e-19 -4.402518728360e-18 0.000000000000e+00 4.823959291874e-19 -3.823052854083e-18 0.000000000000e+00 1.131428628772e-18 -4.826883256707e-18 0.000000000000e+00 8.246403012890e-19 -4.314507047335e-18 0.000000000000e+00 1.006147310060e-18 -3.647672444155e-18 0.000000000000e+00 1.585325177681e-18 -4.727371197077e-18 0.000000000000e+00 1.419940720856e-18 -4.152082450067e-18 0.000000000000e+00 1.537514375135e-18 -3.420356819106e-18 0.000000000000e+00 1.997556682909e-18 -3.172810708444e-18 0.000000000000e+00 2.395902750626e-18 -4.502901962648e-18 0.000000000000e+00 2.040157899804e-18 -3.916633674332e-18 0.000000000000e+00 2.035204427860e-18 -2.886352497929e-18 0.000000000000e+00 2.811086354389e-18 -4.091121666404e-18 0.000000000000e+00 2.673818016774e-18 -3.595690941438e-18 0.000000000000e+00 2.383794417256e-18 -3.756992858447e-18 0.000000000000e+00 3.381591280534e-18 -3.438115042324e-18 0.000000000000e+00 2.812865750457e-18 -3.303581858442e-18 0.000000000000e+00 3.927218252405e-18 -3.107549370422e-18 0.000000000000e+00 3.316566532400e-18 -2.742148528038e-18 0.000000000000e+00 4.340911740049e-18 -2.711282710758e-18 0.000000000000e+00 3.719901966785e-18 -2.582970773801e-18 0.000000000000e+00 3.221786028007e-18 -2.063071891219e-18 0.000000000000e+00 4.604094768486e-18 -2.236407938957e-18 0.000000000000e+00 3.978786359464e-18 -2.313418081030e-18 0.000000000000e+00 3.538436285453e-18 -2.115040357846e-18 0.000000000000e+00 3.187129914295e-18 -1.913685118780e-18 0.000000000000e+00 2.868763840524e-18 -1.301916684800e-18 0.000000000000e+00 4.674918454839e-18 -5.293361027725e-19 0.000000000000e+00 4.516266684125e-18 -1.040767043984e-18 0.000000000000e+00 4.011878869884e-18 -9.154677779103e-19 0.000000000000e+00 3.460356917155e-18 -1.657827184924e-18 0.000000000000e+00 4.073454814109e-18 -1.407369078758e-18 0.000000000000e+00 3.573879803298e-18 -1.896615625204e-18 0.000000000000e+00 3.589862171793e-18 -1.676265189114e-18 0.000000000000e+00 3.165296584484e-18 -1.225739833899e-18 0.000000000000e+00 3.123618201547e-18 1.165860642989e-19 0.000000000000e+00 -1.343168211558e-18 1.149232654522e-19 0.000000000000e+00 -1.074039270558e-18 9.862706065178e-20 0.000000000000e+00 -8.393576232872e-19 7.513444870710e-20 0.000000000000e+00 -6.514089667083e-19 6.780789951755e-20 0.000000000000e+00 -4.908673872706e-19 1.407126104969e-19 0.000000000000e+00 -4.747011795795e-19 2.757973021517e-19 0.000000000000e+00 -4.355671990197e-19 4.017763772938e-19 0.000000000000e+00 -3.716493665706e-19 5.193639083985e-19 0.000000000000e+00 -2.853778520754e-19 6.268592413890e-19 0.000000000000e+00 -1.774851019339e-19 7.114349350375e-19 0.000000000000e+00 -4.553997617525e-20 7.775419347489e-19 0.000000000000e+00 1.030292575403e-19 8.146940083738e-19 0.000000000000e+00 2.677462665209e-19 8.317667673582e-19 0.000000000000e+00 4.398061719257e-19 8.161518032364e-19 0.000000000000e+00 6.177440809552e-19 7.544281698764e-19 0.000000000000e+00 8.018714045951e-19 6.581743978020e-19 0.000000000000e+00 9.931240388791e-19 5.797565429384e-19 0.000000000000e+00 1.157524924825e-18 2.046347122153e-19 0.000000000000e+00 -1.431949640391e-18 1.088655366388e-19 0.000000000000e+00 -5.866824358236e-19 6.859400725391e-19 0.000000000000e+00 1.331486003307e-18 4.381361875527e-19 0.000000000000e+00 -1.351435639663e-18 2.425421815833e-19 0.000000000000e+00 -5.780954476601e-19 7.679407616986e-19 0.000000000000e+00 1.165656535055e-18 1.572795251074e-19 0.000000000000e+00 -7.220429930991e-19 2.228402687858e-19 0.000000000000e+00 -1.193426699804e-18 8.345820658308e-19 0.000000000000e+00 1.509681273352e-18 8.575494575780e-19 0.000000000000e+00 1.330565767906e-18 8.754868264127e-19 0.000000000000e+00 9.741554094944e-19 9.856936230790e-19 0.000000000000e+00 1.171102000323e-18 9.589530594933e-19 0.000000000000e+00 7.632050255779e-19 9.963094214675e-19 0.000000000000e+00 5.490968760569e-19 9.815351963353e-19 0.000000000000e+00 3.449335054029e-19 9.445991594988e-19 0.000000000000e+00 1.565647835378e-19 8.927667349897e-19 0.000000000000e+00 -3.865892982243e-20 7.836121935186e-19 0.000000000000e+00 -1.870971270061e-19 6.816128167410e-19 0.000000000000e+00 -3.337948458336e-19 5.380350104852e-19 0.000000000000e+00 -4.368506779429e-19 4.007109421907e-19 0.000000000000e+00 -5.267446492023e-19 1.060862892440e-18 0.000000000000e+00 1.706038996677e-18 1.043545905434e-18 0.000000000000e+00 1.430007874400e-18 1.442031862098e-18 0.000000000000e+00 1.949493162101e-18 1.749402806854e-18 0.000000000000e+00 1.590358200095e-18 1.338512187691e-18 0.000000000000e+00 1.561775051024e-18 1.917497317031e-18 0.000000000000e+00 1.218766313589e-18 1.991857212813e-18 0.000000000000e+00 8.434287641042e-19 1.996216472507e-18 0.000000000000e+00 4.845038347412e-19 1.928112352282e-18 0.000000000000e+00 1.412134830995e-19 1.807353987138e-18 0.000000000000e+00 -1.818739595668e-19 1.653925363021e-18 0.000000000000e+00 -4.834158365459e-19 1.461786722127e-18 0.000000000000e+00 -7.429046187705e-19 1.241690201400e-18 0.000000000000e+00 -9.505119426952e-19 9.942168253711e-19 0.000000000000e+00 -1.111288293032e-18 7.196416425881e-19 0.000000000000e+00 -1.240950708355e-18 4.820289697299e-19 0.000000000000e+00 -1.024876110023e-18 3.805705741148e-19 0.000000000000e+00 -7.382851825761e-19 2.066881279461e-19 0.000000000000e+00 -9.335304639535e-19 1.107210725119e-18 0.000000000000e+00 9.633797162678e-19 1.234092633240e-18 0.000000000000e+00 1.206713932334e-18 1.545160921523e-18 0.000000000000e+00 1.241362527556e-18 1.666481330176e-18 0.000000000000e+00 9.356966378012e-19 1.725156137885e-18 0.000000000000e+00 6.349046695201e-19 1.368830271531e-18 0.000000000000e+00 9.602345623231e-19 1.474595289134e-18 0.000000000000e+00 7.114528367917e-19 1.205135569242e-18 0.000000000000e+00 7.047713942094e-19 1.704828688768e-18 0.000000000000e+00 3.500295861159e-19 1.511854043201e-18 0.000000000000e+00 4.858591031128e-19 1.345257624052e-18 0.000000000000e+00 5.435150524136e-19 1.193202998755e-18 0.000000000000e+00 4.291190374975e-19 1.591274615618e-18 0.000000000000e+00 6.192868957961e-20 1.479959852683e-18 0.000000000000e+00 2.765220415313e-19 1.369127421640e-18 0.000000000000e+00 4.051467112731e-19 1.498498750152e-18 0.000000000000e+00 -2.317938196938e-19 1.352684103040e-18 0.000000000000e+00 -4.742326079092e-19 1.189190919604e-18 0.000000000000e+00 -6.864752018979e-19 1.000342551076e-18 0.000000000000e+00 -8.453248786585e-19 7.686807900124e-19 0.000000000000e+00 -9.549716196489e-19 6.214798001262e-19 0.000000000000e+00 -7.782991209145e-19 5.525462862958e-19 0.000000000000e+00 -5.978952685837e-19 8.221206371672e-19 0.000000000000e+00 -7.350126300783e-19 7.123502048974e-19 0.000000000000e+00 -6.200597757318e-19 6.709240551572e-19 0.000000000000e+00 -4.946227515272e-19 9.750096675513e-19 0.000000000000e+00 -6.298372075738e-19 8.374219760299e-19 0.000000000000e+00 -5.932534986641e-19 7.846951484680e-19 0.000000000000e+00 -5.210387462284e-19 7.750082295388e-19 0.000000000000e+00 -4.285258182790e-19 8.455014418966e-19 0.000000000000e+00 -3.222897551799e-19 1.105134773146e-18 0.000000000000e+00 -4.734458343592e-19 9.034319581198e-19 0.000000000000e+00 -4.670779162552e-19 1.007339839513e-18 0.000000000000e+00 -3.070621460211e-19 9.168707765639e-19 0.000000000000e+00 -1.974920451175e-19 1.224368056033e-18 0.000000000000e+00 -2.484829955003e-19 1.050910213962e-18 0.000000000000e+00 -1.355881977361e-19 1.073036886131e-18 0.000000000000e+00 4.018656909466e-20 1.190297771245e-18 0.000000000000e+00 -6.045869668014e-20 1.353668145991e-18 0.000000000000e+00 -3.905079211108e-20 1.388493110426e-18 0.000000000000e+00 1.249190245289e-19 1.241391388855e-18 0.000000000000e+00 8.544472317832e-20 1.124850859924e-18 0.000000000000e+00 2.186481045404e-19 1.296201177562e-18 0.000000000000e+00 2.611239324324e-19 4.527197840313e-20 0.000000000000e+00 -3.607082665743e-19 4.486064426601e-20 0.000000000000e+00 -2.543745116175e-19 3.908450404803e-20 0.000000000000e+00 -1.679477766932e-19 3.020201499263e-20 0.000000000000e+00 -9.752426800939e-20 2.373708412051e-20 0.000000000000e+00 -4.237444954924e-20 1.866525659959e-20 0.000000000000e+00 1.603378526246e-21 1.401252423724e-20 0.000000000000e+00 3.484771392929e-20 9.239496042331e-21 0.000000000000e+00 5.823167157359e-20 5.882854262988e-21 0.000000000000e+00 7.294268774179e-20 3.880553478552e-21 0.000000000000e+00 8.209099178202e-20 7.158346922627e-21 0.000000000000e+00 8.517599781044e-20 1.320433788976e-20 0.000000000000e+00 9.309612020540e-20 1.769322395262e-20 0.000000000000e+00 1.060211313112e-19 1.847548816158e-20 0.000000000000e+00 1.232389574094e-19 1.682763214698e-20 0.000000000000e+00 1.450425770599e-19 1.042136510421e-20 0.000000000000e+00 1.707063347567e-19 -1.788599135466e-21 0.000000000000e+00 1.985839238235e-19 -1.913441505981e-20 0.000000000000e+00 2.285337056189e-19 -4.152553737905e-20 0.000000000000e+00 2.595506278643e-19 -7.486283400177e-20 0.000000000000e+00 2.910972398240e-19 -1.024465127841e-19 0.000000000000e+00 3.220221385293e-19 7.378063031638e-21 0.000000000000e+00 7.780807209201e-20 8.182652507571e-20 0.000000000000e+00 -3.961955371778e-19 -8.812847746802e-20 0.000000000000e+00 3.625612797415e-19 1.757092406685e-19 0.000000000000e+00 -3.584954053319e-19 1.238513505086e-20 0.000000000000e+00 6.919411437896e-20 1.655860752218e-20 0.000000000000e+00 8.127996503996e-20 8.523153762023e-20 0.000000000000e+00 -3.007073246408e-19 -6.267346250866e-20 0.000000000000e+00 3.319640070133e-19 -6.544562763468e-20 0.000000000000e+00 4.058943886776e-19 -5.198768728102e-20 0.000000000000e+00 3.701049233011e-19 -2.878758576704e-20 0.000000000000e+00 2.990988529442e-19 -1.702028384898e-20 0.000000000000e+00 3.434399938366e-19 -1.742723417427e-21 0.000000000000e+00 2.634544216562e-19 1.707881989906e-20 0.000000000000e+00 2.274122380186e-19 3.006002380346e-20 0.000000000000e+00 1.942639452560e-19 3.838523703337e-20 0.000000000000e+00 1.640124537516e-19 4.017634379257e-20 0.000000000000e+00 1.356759942913e-19 3.705934581433e-20 0.000000000000e+00 1.101519349807e-19 2.796154028317e-20 0.000000000000e+00 9.150220042405e-20 -2.908574450495e-20 0.000000000000e+00 4.520547268580e-19 -1.833068381529e-20 0.000000000000e+00 3.991674540365e-19 1.518554719431e-20 0.000000000000e+00 5.072222847957e-19 7.162452675402e-20 0.000000000000e+00 5.774440069217e-19 1.367260535647e-19 0.000000000000e+00 6.583476663634e-19 2.159703789013e-19 0.000000000000e+00 7.457788992074e-19 3.196606745145e-19 0.000000000000e+00 8.484189623102e-19 4.443730826357e-19 0.000000000000e+00 9.887634535387e-19 5.136811812356e-19 0.000000000000e+00 8.109808732115e-19 6.413828042303e-19 0.000000000000e+00 6.428288543248e-19 6.900886668622e-19 0.000000000000e+00 5.036793785015e-19 6.924296306850e-19 0.000000000000e+00 3.599636935784e-19 6.698410143446e-19 0.000000000000e+00 2.148267716014e-19 6.278694986595e-19 0.000000000000e+00 7.651178748347e-20 5.674733621971e-19 0.000000000000e+00 -4.772858422560e-20 4.892634257588e-19 0.000000000000e+00 -1.531601204382e-19 3.936020917195e-19 0.000000000000e+00 -2.372013113927e-19 2.868467147069e-19 0.000000000000e+00 -3.033688699361e-19 3.441602789930e-19 0.000000000000e+00 7.117548583275e-19 4.747668884063e-19 0.000000000000e+00 5.968253390165e-19 5.785364191979e-19 0.000000000000e+00 5.345894169295e-19 5.865217948061e-19 0.000000000000e+00 4.287564176290e-19 2.367675603767e-19 0.000000000000e+00 6.354187332493e-19 1.593484609787e-19 0.000000000000e+00 5.654499026215e-19 9.320792742074e-20 0.000000000000e+00 4.937802649303e-19 5.688253925958e-19 0.000000000000e+00 3.053920712167e-19 3.326131263748e-20 0.000000000000e+00 4.380250175018e-19 1.997395884246e-20 0.000000000000e+00 5.163152915581e-20 2.847518771887e-20 0.000000000000e+00 2.395063347649e-20 3.754976205528e-20 0.000000000000e+00 -1.471586680661e-20 4.823086783290e-20 0.000000000000e+00 -6.276992886948e-20 6.171855299423e-20 0.000000000000e+00 -1.244813271721e-19 7.755685752879e-20 0.000000000000e+00 -2.028952925078e-19 1.807627476020e-19 0.000000000000e+00 -2.320416180217e-19 1.727979300388e-20 0.000000000000e+00 3.056666173507e-19 3.384823988502e-20 0.000000000000e+00 3.619590036881e-19 5.396046465952e-19 0.000000000000e+00 1.786167558748e-19 4.984427960153e-19 0.000000000000e+00 6.100914712685e-20 4.465091024031e-19 0.000000000000e+00 -4.301861433002e-20 3.772151103476e-19 0.000000000000e+00 -1.251049980056e-19 2.900173664481e-19 0.000000000000e+00 -1.873134654791e-19 3.009142043690e-20 0.000000000000e+00 7.169704379824e-20 4.630322412898e-20 0.000000000000e+00 5.071863900715e-20 6.439901577930e-20 0.000000000000e+00 1.839616743382e-20 8.364828924338e-20 0.000000000000e+00 -2.346581216746e-20 1.055266087254e-19 0.000000000000e+00 -7.477356120944e-20 1.342676114291e-19 0.000000000000e+00 -1.405791408615e-19 2.161378991635e-19 0.000000000000e+00 -1.306919633256e-19 2.899812291920e-19 0.000000000000e+00 -9.433739857438e-20 1.672926979760e-19 0.000000000000e+00 -7.433306260888e-20 2.289399465856e-19 0.000000000000e+00 -5.751038164211e-20 1.345091732219e-19 0.000000000000e+00 -2.538915092979e-20 1.869727081309e-19 0.000000000000e+00 -1.926230955481e-20 3.494028836334e-19 0.000000000000e+00 -3.468036690416e-20 2.765373210423e-19 0.000000000000e+00 -2.164282098723e-20 2.305966336280e-19 0.000000000000e+00 -6.871850928292e-21 1.076065624754e-19 0.000000000000e+00 1.847135232917e-20 1.545879058540e-19 0.000000000000e+00 2.223775178815e-20 2.041885939737e-19 0.000000000000e+00 2.952316814723e-20 3.919398295693e-19 0.000000000000e+00 4.486525237250e-20 3.119488004207e-19 0.000000000000e+00 3.460421188114e-20 2.529097400839e-19 0.000000000000e+00 3.162786015309e-20 8.204757856826e-20 0.000000000000e+00 5.503340313832e-20 1.247826730832e-19 0.000000000000e+00 6.131376721896e-20 1.730765992155e-19 0.000000000000e+00 6.945604885307e-20 5.469971386317e-20 0.000000000000e+00 8.432471076958e-20 6.553188237982e-20 0.000000000000e+00 1.187889817326e-19 6.826157914475e-20 0.000000000000e+00 1.527298688112e-19 6.221307558008e-20 0.000000000000e+00 1.862497204759e-19 9.453797247261e-20 0.000000000000e+00 9.348053329935e-20 1.396144701478e-19 0.000000000000e+00 1.065032847691e-19 5.396253375996e-20 0.000000000000e+00 2.216952755892e-19 4.143965573652e-20 0.000000000000e+00 2.623620578864e-19 1.026831644898e-19 0.000000000000e+00 1.362270268146e-19 9.857661401232e-20 0.000000000000e+00 1.782738157393e-19 8.518298272975e-20 0.000000000000e+00 2.106111787725e-19 8.680338699681e-20 0.000000000000e+00 2.504100848455e-19 4.146032292088e-19 0.000000000000e+00 1.524085486640e-19 2.232942885409e-19 0.000000000000e+00 7.627992696750e-20 2.745849390825e-19 0.000000000000e+00 8.325611512798e-20 3.340324231734e-19 0.000000000000e+00 1.029904524330e-19 1.907794891546e-19 0.000000000000e+00 1.191023329739e-19 1.505678353299e-19 0.000000000000e+00 1.646498276386e-19 1.255616856118e-19 0.000000000000e+00 2.184497134294e-19 2.427337070306e-19 0.000000000000e+00 1.235814124811e-19 2.883747220039e-19 0.000000000000e+00 1.286000770051e-19 3.255185826371e-19 0.000000000000e+00 1.686489364753e-19 2.132030203938e-19 0.000000000000e+00 1.690512969314e-19 1.814051453645e-19 0.000000000000e+00 2.216738115142e-19 2.667560086896e-19 0.000000000000e+00 1.710458794453e-19 2.450057460616e-19 0.000000000000e+00 2.204053695702e-19 4.512983044454e-19 0.000000000000e+00 2.694895859653e-19 3.553798554397e-19 0.000000000000e+00 2.381818679472e-19 2.957973629236e-19 0.000000000000e+00 2.165093610529e-19 4.782792530023e-19 0.000000000000e+00 3.852830559481e-19 5.049558967585e-19 0.000000000000e+00 4.811953112949e-19 7.471984038906e-20 0.000000000000e+00 3.081520844717e-19 1.155012406733e-19 0.000000000000e+00 3.849943043731e-19 1.895808964036e-19 0.000000000000e+00 4.611829353962e-19 2.426962601021e-19 0.000000000000e+00 5.317856266629e-19 3.304351897289e-19 0.000000000000e+00 5.615898165464e-19 4.062951120432e-19 0.000000000000e+00 4.743710936358e-19 2.914074381503e-19 0.000000000000e+00 4.567557577199e-19 1.483122754767e-19 0.000000000000e+00 2.865886407173e-19 2.200971357524e-19 0.000000000000e+00 2.698862226680e-19 2.810748659006e-19 0.000000000000e+00 2.750338656673e-19 2.282045768100e-19 0.000000000000e+00 3.533611431651e-19 3.552889730989e-19 0.000000000000e+00 3.501187685678e-19 1.059379428625e-21 0.000000000000e+00 8.647402864881e-20 -1.360119010011e-21 0.000000000000e+00 8.640417945571e-20 -3.279031564792e-21 0.000000000000e+00 8.253531026033e-20 -4.652732362350e-21 0.000000000000e+00 7.579486312655e-20 -5.972106009722e-21 0.000000000000e+00 6.640402716585e-20 -6.647314876318e-21 0.000000000000e+00 5.493323745516e-20 -5.611218512058e-21 0.000000000000e+00 4.286484909244e-20 -5.227047950029e-21 0.000000000000e+00 2.833621692844e-20 -5.293016632398e-21 0.000000000000e+00 1.415683072992e-20 -6.984919309616e-21 0.000000000000e+00 6.741174729541e-21 -1.434236764908e-20 0.000000000000e+00 5.868059815839e-21 -2.920472373565e-20 0.000000000000e+00 6.551029703890e-21 -4.564256717761e-20 0.000000000000e+00 7.980997906998e-21 -6.384216248989e-20 0.000000000000e+00 1.003184782652e-20 -8.237548172474e-20 0.000000000000e+00 1.106406368005e-20 -1.033380006750e-19 0.000000000000e+00 9.861105354503e-21 -1.249757284919e-19 0.000000000000e+00 9.667079818125e-21 -1.478707417846e-19 0.000000000000e+00 9.639916243032e-21 -1.740641891956e-19 0.000000000000e+00 6.970124862467e-21 -9.262003004551e-21 0.000000000000e+00 9.509531082585e-21 2.498841098486e-21 0.000000000000e+00 8.676041034050e-20 -1.797495185331e-19 0.000000000000e+00 2.296448136414e-20 4.118520990914e-21 0.000000000000e+00 9.129750348317e-20 -1.825292461685e-19 0.000000000000e+00 3.949213091151e-20 -9.974852825205e-21 0.000000000000e+00 2.107602388908e-20 -2.059920613344e-20 0.000000000000e+00 1.201090829757e-20 3.589472422997e-23 0.000000000000e+00 8.852293831296e-20 -1.618086701326e-19 0.000000000000e+00 1.818313778910e-20 -1.704996369275e-19 0.000000000000e+00 3.387940523680e-20 -1.828215317801e-19 0.000000000000e+00 6.513343708191e-20 -1.681752369872e-19 0.000000000000e+00 5.255153934870e-20 -1.831911504269e-19 0.000000000000e+00 9.101755235211e-20 -1.835262602461e-19 0.000000000000e+00 1.118741887954e-19 -1.732176834983e-19 0.000000000000e+00 1.477084879298e-19 -1.662909718496e-19 0.000000000000e+00 1.805891640418e-19 -1.593322459874e-19 0.000000000000e+00 2.116504349812e-19 -1.459324266762e-19 0.000000000000e+00 2.373216765201e-19 -1.220087142428e-19 0.000000000000e+00 2.721128112171e-19 -1.364443354153e-19 0.000000000000e+00 2.003774473754e-20 -1.499550611091e-19 0.000000000000e+00 3.824886031604e-20 -1.144465689625e-19 0.000000000000e+00 1.983401792434e-20 -9.264779995040e-20 0.000000000000e+00 1.864270113098e-20 -7.241518081476e-20 0.000000000000e+00 1.775600442973e-20 -5.324412389503e-20 0.000000000000e+00 1.652879291214e-20 -3.552934989178e-20 0.000000000000e+00 1.483689023492e-20 5.509483476847e-21 0.000000000000e+00 1.003390934784e-19 4.582862563514e-21 0.000000000000e+00 1.132311202430e-19 5.315977584056e-22 0.000000000000e+00 1.297320219843e-19 -6.479854756473e-21 0.000000000000e+00 1.498175455102e-19 -1.735904551955e-20 0.000000000000e+00 1.729977763413e-19 -3.358204890465e-20 0.000000000000e+00 1.976002143541e-19 -5.443660029414e-20 0.000000000000e+00 2.233144186903e-19 -8.180364261534e-20 0.000000000000e+00 2.490683982614e-19 -1.167204962777e-19 0.000000000000e+00 2.341917674390e-19 -1.356951543130e-19 0.000000000000e+00 2.145396138076e-19 -8.814580117663e-20 0.000000000000e+00 2.133153126730e-19 -1.163879460364e-19 0.000000000000e+00 1.996132292940e-19 -6.442314770538e-20 0.000000000000e+00 1.918318351575e-19 -1.430735989873e-19 0.000000000000e+00 1.899788912851e-19 -9.304940249422e-20 0.000000000000e+00 1.821829452335e-19 -4.439708997476e-20 0.000000000000e+00 1.706267842868e-19 -7.053380007468e-20 0.000000000000e+00 1.644412501870e-19 -2.959895937238e-20 0.000000000000e+00 1.507352862973e-19 -1.874329124500e-20 0.000000000000e+00 1.322019670624e-19 -5.239858182904e-20 0.000000000000e+00 1.470352193185e-19 -1.049462904727e-20 0.000000000000e+00 1.159455374970e-19 -3.857439878630e-20 0.000000000000e+00 1.306730458358e-19 -2.752822183538e-20 0.000000000000e+00 1.156302460004e-19 -1.503595350576e-19 0.000000000000e+00 1.601183612365e-19 -1.577751910580e-19 0.000000000000e+00 1.264963689859e-19 -1.602240705064e-19 0.000000000000e+00 9.627370413260e-20 -1.638774327668e-19 0.000000000000e+00 7.670990141508e-20 -1.447255878399e-19 0.000000000000e+00 6.049958756194e-20 -1.206539612516e-19 0.000000000000e+00 1.700854530403e-19 -9.572704584571e-20 0.000000000000e+00 1.529685202210e-19 -7.451717465301e-20 0.000000000000e+00 1.383855609068e-19 -5.770862117060e-20 0.000000000000e+00 1.248445187230e-19 -4.441244527698e-20 0.000000000000e+00 1.124967335879e-19 -5.413494363893e-21 0.000000000000e+00 1.022657670546e-19 -1.849657564890e-20 0.000000000000e+00 1.022570359055e-19 -3.318467255061e-20 0.000000000000e+00 1.013538470337e-19 -1.762236934155e-21 0.000000000000e+00 9.295254130848e-20 -1.043081283569e-20 0.000000000000e+00 3.484431848240e-20 -1.110505157461e-20 0.000000000000e+00 4.825002785462e-20 -1.090326501677e-20 0.000000000000e+00 6.068973258759e-20 -9.580010858675e-21 0.000000000000e+00 7.217374028793e-20 -7.157602036993e-21 0.000000000000e+00 8.096370341567e-20 -3.609845104317e-21 0.000000000000e+00 8.674724085722e-20 -1.118169166148e-20 0.000000000000e+00 9.060604497790e-20 -1.743319444358e-20 0.000000000000e+00 8.008852698064e-20 -2.457745722495e-20 0.000000000000e+00 9.018622222356e-20 -2.047939536472e-20 0.000000000000e+00 6.782405156021e-20 -2.203839054952e-20 0.000000000000e+00 5.435710287808e-20 -2.361969867100e-20 0.000000000000e+00 4.153662302997e-20 -2.358719939366e-20 0.000000000000e+00 2.663194512328e-20 -1.238940707741e-19 0.000000000000e+00 1.362107078811e-19 -9.534002553361e-20 0.000000000000e+00 1.264452293981e-19 -7.521057341364e-20 0.000000000000e+00 1.169923052657e-19 -6.059199222364e-20 0.000000000000e+00 1.063946304688e-19 -1.359071272115e-19 0.000000000000e+00 1.070658375587e-19 -1.105547805006e-19 0.000000000000e+00 1.090461106893e-19 -1.411128323525e-19 0.000000000000e+00 8.235244119229e-20 -1.194479409605e-19 0.000000000000e+00 8.864687212432e-20 -9.001717747500e-20 0.000000000000e+00 1.063325422971e-19 -7.471244316548e-20 0.000000000000e+00 1.019223418552e-19 -9.987561497837e-20 0.000000000000e+00 9.182161496331e-20 -8.317777731766e-20 0.000000000000e+00 9.078915657786e-20 -1.238018739969e-19 0.000000000000e+00 6.803481179910e-20 -1.039841057112e-19 0.000000000000e+00 7.577352031755e-20 -9.156065061688e-20 0.000000000000e+00 8.159622666426e-20 -4.761265396761e-20 0.000000000000e+00 9.566210792400e-20 -6.524413557989e-20 0.000000000000e+00 8.798909090858e-20 -3.622611984611e-20 0.000000000000e+00 8.858231012709e-20 -3.030678878228e-20 0.000000000000e+00 7.765071738201e-20 -3.427073049049e-20 0.000000000000e+00 6.300251698121e-20 -3.509805537760e-20 0.000000000000e+00 4.912290023640e-20 -4.077186791359e-20 0.000000000000e+00 3.376033938756e-20 -6.151070313839e-20 0.000000000000e+00 3.361953228402e-20 -8.069036994129e-20 0.000000000000e+00 3.470219477701e-20 -5.140484842871e-20 0.000000000000e+00 5.385279239688e-20 -1.014694134938e-19 0.000000000000e+00 3.806465732244e-20 -1.251739117184e-19 0.000000000000e+00 4.399865117323e-20 -1.049404090736e-19 0.000000000000e+00 5.717471746417e-20 -9.148643584922e-20 0.000000000000e+00 6.714229433176e-20 -8.762848059026e-20 0.000000000000e+00 5.105078647224e-20 -7.031679463883e-20 0.000000000000e+00 5.067049642093e-20 -7.933645974845e-20 0.000000000000e+00 6.268805009313e-20 -6.529250337432e-20 0.000000000000e+00 6.819100235589e-20 -4.700102311160e-20 0.000000000000e+00 7.595590432175e-20 -7.978669600561e-20 0.000000000000e+00 7.704438758083e-20 -1.671830891802e-19 0.000000000000e+00 7.644751998929e-19 -2.519779884487e-19 0.000000000000e+00 8.065809587216e-19 -3.686818617460e-19 0.000000000000e+00 8.204765132784e-19 -4.787594798719e-19 0.000000000000e+00 8.249303694659e-19 -5.891760654157e-19 0.000000000000e+00 8.162302644147e-19 -6.991900069107e-19 0.000000000000e+00 7.944770914037e-19 -8.070354016249e-19 0.000000000000e+00 7.583475962747e-19 -9.112740305474e-19 0.000000000000e+00 7.081027433742e-19 -1.007386646217e-18 0.000000000000e+00 6.431177704750e-19 -1.095765036315e-18 0.000000000000e+00 5.650030895292e-19 -1.170557794772e-18 0.000000000000e+00 4.769358686948e-19 -1.233298347396e-18 0.000000000000e+00 3.783941792790e-19 -1.282322199231e-18 0.000000000000e+00 2.731139829848e-19 -1.318031395972e-18 0.000000000000e+00 1.628735238531e-19 -1.337471455451e-18 0.000000000000e+00 4.829659398335e-20 -1.343072973190e-18 0.000000000000e+00 -6.822835227164e-20 -1.333898481297e-18 0.000000000000e+00 -1.846281520557e-19 -1.310920656883e-18 0.000000000000e+00 -2.999695425387e-19 -1.274640629889e-18 0.000000000000e+00 -4.123598046135e-19 -1.224386526327e-18 0.000000000000e+00 -5.206347850617e-19 -1.161808950827e-18 0.000000000000e+00 -6.224341632333e-19 -1.089691948992e-18 0.000000000000e+00 -7.163725967985e-19 -1.008188414986e-18 0.000000000000e+00 -8.043854904827e-19 -9.190659649336e-19 0.000000000000e+00 -8.854891348165e-19 -8.218739250797e-19 0.000000000000e+00 -9.571670185930e-19 -7.185604972437e-19 0.000000000000e+00 -1.018222974380e-18 -6.073436934108e-19 0.000000000000e+00 -1.070601138053e-18 -4.883991407452e-19 0.000000000000e+00 -1.115199847845e-18 -3.674758985122e-19 0.000000000000e+00 -1.150550330446e-18 -2.483715992183e-19 0.000000000000e+00 -1.175399180890e-18 -1.249474656382e-19 0.000000000000e+00 -1.190730108647e-18 -5.804611074699e-20 0.000000000000e+00 -1.196405355586e-18 -5.621889916559e-20 0.000000000000e+00 -1.335640020746e-18 -7.223958770434e-20 0.000000000000e+00 -1.481508418995e-18 -7.921092522641e-20 0.000000000000e+00 -1.644575240789e-18 -7.145960504810e-20 0.000000000000e+00 -1.823276640304e-18 -1.215930967646e-19 0.000000000000e+00 -1.885439705802e-18 -8.985090125993e-20 0.000000000000e+00 -1.285000907956e-18 1.834061030032e-20 0.000000000000e+00 1.381571200909e-18 -2.027857160889e-19 0.000000000000e+00 -1.293097011512e-18 -2.671751560731e-19 0.000000000000e+00 -1.850504243824e-18 -1.144215229232e-19 0.000000000000e+00 1.462104825935e-18 -1.430278643966e-19 0.000000000000e+00 -1.734758310098e-18 -1.219460197414e-19 0.000000000000e+00 -1.399526566577e-18 -2.479854239417e-20 0.000000000000e+00 1.218318668959e-18 -9.679133654572e-20 0.000000000000e+00 1.314590675368e-18 -3.087195890927e-19 0.000000000000e+00 1.491415847947e-18 -2.358346440208e-19 0.000000000000e+00 1.329129008809e-18 -5.147034512968e-19 0.000000000000e+00 1.499652231966e-18 -7.348289306227e-19 0.000000000000e+00 1.483847881900e-18 -9.465773885609e-19 0.000000000000e+00 1.443313036968e-18 -1.149056026269e-18 0.000000000000e+00 1.370963824835e-18 -1.338832831680e-18 0.000000000000e+00 1.267291130110e-18 -1.514108197043e-18 0.000000000000e+00 1.136230760797e-18 -1.665268215826e-18 0.000000000000e+00 9.816874808166e-19 -1.789622002117e-18 0.000000000000e+00 8.087845344562e-19 -1.888692325262e-18 0.000000000000e+00 6.222978602940e-19 -1.961099617157e-18 0.000000000000e+00 4.254133576372e-19 -2.006548552676e-18 0.000000000000e+00 2.229506208096e-19 -2.026268619026e-18 0.000000000000e+00 1.895120173382e-20 -2.017534543815e-18 0.000000000000e+00 -1.824123804302e-19 -1.987947916563e-18 0.000000000000e+00 -3.788360724381e-19 -1.936821307721e-18 0.000000000000e+00 -5.696825004028e-19 -1.858235387727e-18 0.000000000000e+00 -7.492880589173e-19 -1.764363242825e-18 0.000000000000e+00 -9.154709308253e-19 -1.658475596678e-18 0.000000000000e+00 -1.070715613120e-18 -1.537364920168e-18 0.000000000000e+00 -1.214312942466e-18 -1.404043452347e-18 0.000000000000e+00 -1.344396393203e-18 -1.260180773303e-18 0.000000000000e+00 -1.458758924855e-18 -1.110430582922e-18 0.000000000000e+00 -1.559035202566e-18 -9.483746532979e-19 0.000000000000e+00 -1.642526331125e-18 -7.676698216029e-19 0.000000000000e+00 -1.699698311443e-18 -6.090399057375e-19 0.000000000000e+00 -1.778765242004e-18 -4.393580066875e-19 0.000000000000e+00 -1.814101172689e-18 -8.534490396934e-20 0.000000000000e+00 1.068307548329e-18 -1.551803766883e-19 0.000000000000e+00 1.187325584137e-18 -1.570460881339e-19 0.000000000000e+00 9.084920748137e-19 -3.034518271388e-19 0.000000000000e+00 9.240609263846e-19 -2.221848782418e-19 0.000000000000e+00 1.046046444182e-18 -4.315259273547e-19 0.000000000000e+00 9.277900971938e-19 -5.504743031806e-19 0.000000000000e+00 9.206480171997e-19 -6.664896152161e-19 0.000000000000e+00 9.037610046410e-19 -7.844906586128e-19 0.000000000000e+00 8.745591912884e-19 -9.032098619104e-19 0.000000000000e+00 8.289651304949e-19 -1.018022749562e-18 0.000000000000e+00 7.659863816419e-19 -1.123077132619e-18 0.000000000000e+00 6.862418861904e-19 -1.215753182473e-18 0.000000000000e+00 5.931707467729e-19 -1.293859548651e-18 0.000000000000e+00 4.886773240287e-19 -1.357982530402e-18 0.000000000000e+00 3.733970515896e-19 -1.403995919778e-18 0.000000000000e+00 2.511454416284e-19 -1.435904591990e-18 0.000000000000e+00 1.249308600867e-19 -1.449816822103e-18 0.000000000000e+00 -4.485142805303e-21 -1.448544198338e-18 0.000000000000e+00 -1.354155150087e-19 -1.430600832047e-18 0.000000000000e+00 -2.650565875228e-19 -1.398325086280e-18 0.000000000000e+00 -3.914923581760e-19 -1.350421442207e-18 0.000000000000e+00 -5.124575788310e-19 -1.288453203085e-18 0.000000000000e+00 -6.274468129656e-19 -1.213648287243e-18 0.000000000000e+00 -7.357305245629e-19 -1.130698510472e-18 0.000000000000e+00 -8.362483640667e-19 -1.038283159257e-18 0.000000000000e+00 -9.288169773451e-19 -9.363406342486e-19 0.000000000000e+00 -1.012332359096e-18 -8.257510181435e-19 0.000000000000e+00 -1.085278199753e-18 -7.097458972508e-19 0.000000000000e+00 -1.146260425836e-18 -5.903909379602e-19 0.000000000000e+00 -1.198619186956e-18 -4.641481024875e-19 0.000000000000e+00 -1.244667267504e-18 -3.364825920421e-19 0.000000000000e+00 -1.280745345866e-18 -2.889864845201e-19 0.000000000000e+00 -1.442180447546e-18 -3.203184730540e-19 0.000000000000e+00 -1.653179268552e-18 -1.461060795312e-19 0.000000000000e+00 -1.557938715753e-18 -4.060503367024e-19 0.000000000000e+00 1.330514351139e-18 -3.117160910430e-19 0.000000000000e+00 1.188145688502e-18 -3.754447485941e-19 0.000000000000e+00 1.048299842902e-18 -5.099459182626e-19 0.000000000000e+00 1.034570110884e-18 -6.312407397976e-19 0.000000000000e+00 1.013857884876e-18 -4.671897234706e-19 0.000000000000e+00 1.170106164257e-18 -6.039025417219e-19 0.000000000000e+00 1.134017414491e-18 -7.467135219485e-19 0.000000000000e+00 9.955767988383e-19 -7.040306809358e-19 0.000000000000e+00 1.086972915800e-18 -6.055870991466e-19 0.000000000000e+00 1.297543868921e-18 -7.102161180228e-19 0.000000000000e+00 1.188015012303e-18 -7.972412277013e-19 0.000000000000e+00 1.295247299519e-18 -8.826402942456e-19 0.000000000000e+00 9.632637860098e-19 -8.330487097347e-19 0.000000000000e+00 1.120592995513e-18 -9.835542490085e-19 0.000000000000e+00 1.245416691139e-18 -1.002485320593e-18 0.000000000000e+00 1.063533272827e-18 -1.157074196575e-18 0.000000000000e+00 1.165514064875e-18 -1.319887057131e-18 0.000000000000e+00 1.062828960130e-18 -1.465271429879e-18 0.000000000000e+00 9.372857069441e-19 -1.017036265694e-18 0.000000000000e+00 9.062202783146e-19 -1.155262968192e-18 0.000000000000e+00 9.844892095619e-19 -1.144122006735e-18 0.000000000000e+00 8.263351143493e-19 -1.292514692371e-18 0.000000000000e+00 8.841615150838e-19 -1.256760894345e-18 0.000000000000e+00 7.285268414610e-19 -1.410338639592e-18 0.000000000000e+00 7.650599097057e-19 -1.352455380281e-18 0.000000000000e+00 6.163820216898e-19 -1.588111285855e-18 0.000000000000e+00 7.914803669943e-19 -1.511125204464e-18 0.000000000000e+00 6.300967167287e-19 -1.435021601992e-18 0.000000000000e+00 4.921794849603e-19 -1.496159266405e-18 0.000000000000e+00 3.577197882502e-19 -1.539902659194e-18 0.000000000000e+00 2.171172430584e-19 -1.565059860790e-18 0.000000000000e+00 7.274187131164e-20 -1.572799390222e-18 0.000000000000e+00 -7.289466642154e-20 -1.561260550413e-18 0.000000000000e+00 -2.172341434440e-19 -1.533691352999e-18 0.000000000000e+00 -3.593840422885e-19 -1.487617433800e-18 0.000000000000e+00 -4.970645629025e-19 -1.426900588678e-18 0.000000000000e+00 -6.271062981493e-19 -1.351932170716e-18 0.000000000000e+00 -7.500428182539e-19 -1.265846212088e-18 0.000000000000e+00 -8.650427237929e-19 -1.170241809708e-18 0.000000000000e+00 -9.701463568490e-19 -1.064635520957e-18 0.000000000000e+00 -1.065544832575e-18 -9.478855891606e-19 0.000000000000e+00 -1.151291507995e-18 -8.232585059886e-19 0.000000000000e+00 -1.225377248678e-18 -6.950854488726e-19 0.000000000000e+00 -1.282255834667e-18 -5.722175653015e-19 0.000000000000e+00 -1.328090487126e-18 -4.414328335163e-19 0.000000000000e+00 -1.378467762455e-18 -4.506694191756e-19 0.000000000000e+00 -1.523201232582e-18 -5.022180024146e-19 0.000000000000e+00 -1.664650092910e-18 -5.625937774312e-19 0.000000000000e+00 -1.447352163571e-18 -5.847027447696e-19 0.000000000000e+00 -1.555923518026e-18 -6.312684854493e-19 0.000000000000e+00 -1.653007202549e-18 -6.718950317008e-19 0.000000000000e+00 -1.403019268764e-18 -6.474606925622e-19 0.000000000000e+00 -1.490046124673e-18 -6.936068530194e-19 0.000000000000e+00 -1.572565088281e-18 -8.167095681226e-19 0.000000000000e+00 -1.539086952107e-18 -7.267162436619e-19 0.000000000000e+00 -1.479781203670e-18 -9.569829671818e-19 0.000000000000e+00 -1.471660652896e-18 -1.689997930043e-18 0.000000000000e+00 6.327335237681e-19 -1.592713177464e-18 0.000000000000e+00 4.836937781268e-19 -1.766819817324e-18 0.000000000000e+00 4.637692957961e-19 -1.650136998895e-18 0.000000000000e+00 3.294822818134e-19 -1.819861693993e-18 0.000000000000e+00 2.865017449949e-19 -1.850303503422e-18 0.000000000000e+00 1.050054076283e-19 -1.688730595362e-18 0.000000000000e+00 1.695480023045e-19 -1.705678585987e-18 0.000000000000e+00 7.556081982329e-21 -1.702945521250e-18 0.000000000000e+00 -1.546007600458e-19 -1.857791418540e-18 0.000000000000e+00 -7.797425496392e-20 -1.841774686303e-18 0.000000000000e+00 -2.571403456386e-19 -1.680792411207e-18 0.000000000000e+00 -3.144428774249e-19 -1.806774552430e-18 0.000000000000e+00 -4.314878121174e-19 -1.749276166644e-18 0.000000000000e+00 -5.995789251756e-19 -1.640528530326e-18 0.000000000000e+00 -4.693518955416e-19 -1.579809441961e-18 0.000000000000e+00 -6.179861278118e-19 -1.504933316750e-18 0.000000000000e+00 -7.580114470329e-19 -1.672514415022e-18 0.000000000000e+00 -7.575506363840e-19 -1.582144046589e-18 0.000000000000e+00 -9.048848975605e-19 -1.415836214846e-18 0.000000000000e+00 -8.886032446753e-19 -1.315522735013e-18 0.000000000000e+00 -1.009340485325e-18 -1.478269714047e-18 0.000000000000e+00 -1.042474226172e-18 -1.362344895976e-18 0.000000000000e+00 -1.168695598608e-18 -1.236045261521e-18 0.000000000000e+00 -1.281756218911e-18 -1.205245515242e-18 0.000000000000e+00 -1.118551638986e-18 -1.085079575584e-18 0.000000000000e+00 -1.216495729750e-18 -9.527295408892e-19 0.000000000000e+00 -1.303906174144e-18 -1.100115279466e-18 0.000000000000e+00 -1.381752129722e-18 -8.057749385314e-19 0.000000000000e+00 -1.389050261683e-18 -2.609538738915e-19 0.000000000000e+00 1.647616695014e-19 -2.919094388188e-19 0.000000000000e+00 1.764996600936e-19 -3.335207231022e-19 0.000000000000e+00 1.777940876006e-19 -3.712699922843e-19 0.000000000000e+00 1.784789977440e-19 -4.108714255183e-19 0.000000000000e+00 1.781704971412e-19 -4.482812170516e-19 0.000000000000e+00 1.748487799584e-19 -4.861545431837e-19 0.000000000000e+00 1.691483096996e-19 -5.243068500269e-19 0.000000000000e+00 1.608304349550e-19 -5.600549888788e-19 0.000000000000e+00 1.503084301172e-19 -5.912630227458e-19 0.000000000000e+00 1.369206681071e-19 -6.201522184264e-19 0.000000000000e+00 1.214044459630e-19 -6.452018340201e-19 0.000000000000e+00 1.047318316220e-19 -6.660214812118e-19 0.000000000000e+00 8.479958826986e-20 -6.833019225107e-19 0.000000000000e+00 6.297171542731e-20 -6.973671407091e-19 0.000000000000e+00 4.045117141989e-20 -7.046239941743e-19 0.000000000000e+00 1.619797937262e-20 -7.062860683025e-19 0.000000000000e+00 -9.364885045215e-21 -7.002202007412e-19 0.000000000000e+00 -3.481133414122e-20 -6.919623589893e-19 0.000000000000e+00 -6.191670157326e-20 -6.787088294813e-19 0.000000000000e+00 -8.935191241714e-20 -6.554491998671e-19 0.000000000000e+00 -1.145674711249e-19 -6.272590077815e-19 0.000000000000e+00 -1.399091464312e-19 -5.958189314729e-19 0.000000000000e+00 -1.645600908281e-19 -5.573042319807e-19 0.000000000000e+00 -1.878373344274e-19 -5.149403788469e-19 0.000000000000e+00 -2.099446040423e-19 -4.711682237424e-19 0.000000000000e+00 -2.300669924201e-19 -4.211937252606e-19 0.000000000000e+00 -2.480337570887e-19 -3.681509828598e-19 0.000000000000e+00 -2.642116063119e-19 -3.128331526128e-19 0.000000000000e+00 -2.788799368621e-19 -2.536239102348e-19 0.000000000000e+00 -2.905195287894e-19 -1.908083148472e-19 0.000000000000e+00 -2.993515712054e-19 -1.274939167048e-19 0.000000000000e+00 -3.060978391053e-19 -6.469678536282e-20 0.000000000000e+00 -3.083601768594e-19 -3.153916552472e-20 0.000000000000e+00 -3.082437615376e-19 -2.653493235509e-20 0.000000000000e+00 -3.770995438875e-19 -3.143601740400e-20 0.000000000000e+00 -4.449153493624e-19 -3.792035082976e-20 0.000000000000e+00 -5.143764913858e-19 -3.970926627517e-20 0.000000000000e+00 -5.967480925998e-19 -4.082297285398e-20 0.000000000000e+00 -6.800742994528e-19 -4.581330964963e-20 0.000000000000e+00 -7.733811798971e-19 -4.880906393131e-20 0.000000000000e+00 -8.667501485130e-19 -4.780013114214e-20 0.000000000000e+00 -9.686096746009e-19 -4.545630266269e-20 0.000000000000e+00 -1.073891811150e-18 -7.625046079679e-20 0.000000000000e+00 -1.111383753596e-18 -4.294517071055e-20 0.000000000000e+00 -3.537772863638e-19 -1.719845126250e-19 0.000000000000e+00 6.743148592899e-19 -9.735986205601e-20 0.000000000000e+00 -3.612001213090e-19 -8.589510495464e-20 0.000000000000e+00 -1.021743567738e-18 -1.683306946398e-19 0.000000000000e+00 -1.089138337799e-18 -5.497907598813e-20 0.000000000000e+00 -4.079656112784e-19 -2.348961773377e-19 0.000000000000e+00 7.096252894761e-19 -1.870825924146e-19 0.000000000000e+00 6.025531287638e-19 -2.244591693549e-19 0.000000000000e+00 6.438448811726e-19 -3.246724570477e-19 0.000000000000e+00 7.247714772044e-19 -2.913026643607e-19 0.000000000000e+00 6.491204355067e-19 -4.211313944097e-19 0.000000000000e+00 7.336151611526e-19 -5.214920396913e-19 0.000000000000e+00 7.303516516307e-19 -6.236593233290e-19 0.000000000000e+00 7.153728802223e-19 -7.233425234853e-19 0.000000000000e+00 6.890494357018e-19 -8.183789971018e-19 0.000000000000e+00 6.504810395806e-19 -9.066311979888e-19 0.000000000000e+00 5.983386169343e-19 -9.874155441905e-19 0.000000000000e+00 5.339124375799e-19 -1.061582425290e-18 0.000000000000e+00 4.585276959309e-19 -1.122144403144e-18 0.000000000000e+00 3.751694748644e-19 -1.173063674385e-18 0.000000000000e+00 2.848476772973e-19 -1.210862376636e-18 0.000000000000e+00 1.881511707325e-19 -1.235553894258e-18 0.000000000000e+00 8.739370969124e-20 -1.246126291948e-18 0.000000000000e+00 -1.564161114705e-20 -1.244187787524e-18 0.000000000000e+00 -1.200913781455e-19 -1.228657902646e-18 0.000000000000e+00 -2.248069601289e-19 -1.201914020477e-18 0.000000000000e+00 -3.269478232445e-19 -1.161775933060e-18 0.000000000000e+00 -4.260444256943e-19 -1.110132603405e-18 0.000000000000e+00 -5.216621502768e-19 -1.049384665218e-18 0.000000000000e+00 -6.110632966738e-19 -9.771064228174e-19 0.000000000000e+00 -6.934407186539e-19 -8.970019990154e-19 0.000000000000e+00 -7.706978067290e-19 -8.123250017075e-19 0.000000000000e+00 -8.416878699791e-19 -7.238922562347e-19 0.000000000000e+00 -9.015078830998e-19 -6.245168964924e-19 0.000000000000e+00 -9.500705345999e-19 -5.144508233369e-19 0.000000000000e+00 -9.889183274936e-19 -3.953974269140e-19 0.000000000000e+00 -1.020090470168e-18 -2.751978142145e-19 0.000000000000e+00 -1.052811906751e-18 -2.090937674179e-19 0.000000000000e+00 5.336518890025e-19 -2.485432300351e-19 0.000000000000e+00 5.844163492189e-19 -2.275320834347e-19 0.000000000000e+00 4.670955864380e-19 -2.392576009567e-19 0.000000000000e+00 4.071001187965e-19 -2.471917209082e-19 0.000000000000e+00 3.524564298069e-19 -2.568878699094e-19 0.000000000000e+00 3.012187205189e-19 -2.597059522356e-19 0.000000000000e+00 2.559647587727e-19 -2.578266763261e-19 0.000000000000e+00 2.064084193470e-19 -3.055328701907e-19 0.000000000000e+00 2.250229954370e-19 -3.563385962881e-19 0.000000000000e+00 2.147239380671e-19 -3.935094310855e-19 0.000000000000e+00 2.098471062103e-19 -4.329280295353e-19 0.000000000000e+00 2.091136896828e-19 -4.715016401396e-19 0.000000000000e+00 2.061353976994e-19 -5.124280365334e-19 0.000000000000e+00 1.990883902181e-19 -5.525164741563e-19 0.000000000000e+00 1.883005703955e-19 -5.890519566935e-19 0.000000000000e+00 1.741444672613e-19 -6.208910724803e-19 0.000000000000e+00 1.566045587727e-19 -6.497540365229e-19 0.000000000000e+00 1.369245486179e-19 -6.753470971549e-19 0.000000000000e+00 1.145456432520e-19 -6.960052459837e-19 0.000000000000e+00 8.978022378869e-20 -7.129830209309e-19 0.000000000000e+00 6.225770145344e-20 -7.236883381254e-19 0.000000000000e+00 3.415116225369e-20 -7.298071149750e-19 0.000000000000e+00 6.873112094278e-21 -7.294236951792e-19 0.000000000000e+00 -2.363352299047e-20 -7.227948596380e-19 0.000000000000e+00 -5.670711592150e-20 -7.115261075319e-19 0.000000000000e+00 -8.780746914757e-20 -6.925638366978e-19 0.000000000000e+00 -1.174894957027e-19 -6.665479987157e-19 0.000000000000e+00 -1.477652403992e-19 -6.366502648844e-19 0.000000000000e+00 -1.779633748811e-19 -5.995617880943e-19 0.000000000000e+00 -2.051657550813e-19 -5.587949098634e-19 0.000000000000e+00 -2.320130685500e-19 -5.136437296525e-19 0.000000000000e+00 -2.588390392096e-19 -4.636526397614e-19 0.000000000000e+00 -2.817825588863e-19 -4.098525953691e-19 0.000000000000e+00 -3.018525603693e-19 -3.546285354184e-19 0.000000000000e+00 -3.204557287972e-19 -2.953200263844e-19 0.000000000000e+00 -3.367926789603e-19 -2.316228237912e-19 0.000000000000e+00 -3.507295332383e-19 -1.658234666089e-19 0.000000000000e+00 -3.606015525293e-19 -2.977155548121e-19 0.000000000000e+00 2.813563956546e-19 -3.515769744159e-19 0.000000000000e+00 2.638558466320e-19 -3.814515366685e-19 0.000000000000e+00 2.383110404480e-19 -4.142572909889e-19 0.000000000000e+00 2.396222650229e-19 -2.904433391190e-19 0.000000000000e+00 3.317881367236e-19 -2.889669433768e-19 0.000000000000e+00 3.834129269567e-19 -2.860798433955e-19 0.000000000000e+00 4.450975601295e-19 -4.529794144522e-19 0.000000000000e+00 2.413811065101e-19 -2.729184676095e-19 0.000000000000e+00 5.164621273122e-19 -8.991531406840e-20 0.000000000000e+00 -9.190515508332e-19 -8.663434224824e-20 0.000000000000e+00 -8.191158485715e-19 -7.839407771826e-20 0.000000000000e+00 -7.232752977870e-19 -7.127722104390e-20 0.000000000000e+00 -6.365616476008e-19 -6.865787630280e-20 0.000000000000e+00 -5.539530927005e-19 -6.534586039682e-20 0.000000000000e+00 -4.757396406300e-19 -1.319654984400e-19 0.000000000000e+00 -4.287236411723e-19 -3.733966877917e-19 0.000000000000e+00 6.520623477021e-19 -3.276354012390e-19 0.000000000000e+00 5.788617272628e-19 -4.960357424958e-19 0.000000000000e+00 2.406942561114e-19 -5.432930568835e-19 0.000000000000e+00 2.320057925923e-19 -5.851737720756e-19 0.000000000000e+00 2.156523502587e-19 -6.224492608453e-19 0.000000000000e+00 1.961857681939e-19 -6.552494596690e-19 0.000000000000e+00 1.738417874246e-19 -6.851634680061e-19 0.000000000000e+00 1.473786445179e-19 -7.096837180143e-19 0.000000000000e+00 1.187889817326e-19 -7.302169099906e-19 0.000000000000e+00 8.911859670964e-20 -7.448913493135e-19 0.000000000000e+00 5.919597848939e-20 -7.532977178926e-19 0.000000000000e+00 2.722833111572e-20 -7.597403358280e-19 0.000000000000e+00 -7.550746280079e-21 -7.568662264627e-19 0.000000000000e+00 -4.434380874348e-20 -7.470588570868e-19 0.000000000000e+00 -8.036658982746e-20 -7.324095425550e-19 0.000000000000e+00 -1.163078801862e-19 -7.096643912519e-19 0.000000000000e+00 -1.526314008515e-19 -6.822964981742e-19 0.000000000000e+00 -1.882438179261e-19 -6.463290295263e-19 0.000000000000e+00 -2.225931287588e-19 -6.054263697782e-19 0.000000000000e+00 -2.550807645700e-19 -5.609839301239e-19 0.000000000000e+00 -2.839808682135e-19 -5.109811240800e-19 0.000000000000e+00 -3.108650465341e-19 -4.564722075884e-19 0.000000000000e+00 -3.369673019430e-19 -3.992448910140e-19 0.000000000000e+00 -3.601320107312e-19 -3.397624406413e-19 0.000000000000e+00 -3.780308664621e-19 -2.780029414377e-19 0.000000000000e+00 -3.952001861762e-19 -2.092907986177e-19 0.000000000000e+00 -4.116535516611e-19 -1.833366695791e-19 0.000000000000e+00 -9.775872361691e-19 -1.783414821451e-19 0.000000000000e+00 -8.637942907323e-19 -1.629542869826e-19 0.000000000000e+00 -7.626653314219e-19 -1.494365278631e-19 0.000000000000e+00 -6.712746956813e-19 -1.387942271928e-19 0.000000000000e+00 -5.914231223869e-19 -1.325679477304e-19 0.000000000000e+00 -5.107179579985e-19 -1.959674894655e-19 0.000000000000e+00 -4.770508288251e-19 -2.624862342297e-19 0.000000000000e+00 -4.526365955826e-19 -1.979875378311e-19 0.000000000000e+00 -5.454770871438e-19 -2.552483541270e-19 0.000000000000e+00 -5.099949097106e-19 -2.113869413733e-19 0.000000000000e+00 -6.204504946557e-19 -2.604152541608e-19 0.000000000000e+00 -5.707645565659e-19 -3.234408116744e-19 0.000000000000e+00 -4.355497367214e-19 -3.079023978595e-19 0.000000000000e+00 -4.886283325808e-19 -2.980022691190e-19 0.000000000000e+00 -5.370301369112e-19 -2.292605737845e-19 0.000000000000e+00 -7.026296467908e-19 -2.807976367573e-19 0.000000000000e+00 -6.414074353719e-19 -3.184890374541e-19 0.000000000000e+00 -5.857099798353e-19 -3.849975352447e-19 0.000000000000e+00 -4.205146979075e-19 -3.653523890534e-19 0.000000000000e+00 -4.760642089726e-19 -3.454638014470e-19 0.000000000000e+00 -5.319571452371e-19 -4.481704309001e-19 0.000000000000e+00 -4.008482695402e-19 -5.091080007939e-19 0.000000000000e+00 -3.741309531809e-19 -5.615238668118e-19 0.000000000000e+00 -3.423398690453e-19 -6.114239416396e-19 0.000000000000e+00 -3.097629814874e-19 -6.569909601239e-19 0.000000000000e+00 -2.752031529477e-19 -7.043460365302e-19 0.000000000000e+00 -2.366807685965e-19 -7.304863477960e-19 0.000000000000e+00 -1.902189978864e-19 -7.550850871970e-19 0.000000000000e+00 -1.513779958865e-19 -7.751399455932e-19 0.000000000000e+00 -1.122022998364e-19 -7.861309768487e-19 0.000000000000e+00 -6.978443707339e-20 -7.933112404620e-19 0.000000000000e+00 -2.881982557786e-20 -7.937502232380e-19 0.000000000000e+00 1.561285379077e-20 -7.775157428114e-19 0.000000000000e+00 5.360222227561e-20 -7.652595437927e-19 0.000000000000e+00 8.579881978221e-20 -7.486535954134e-19 0.000000000000e+00 1.192177781680e-19 -7.262109951019e-19 0.000000000000e+00 1.551183231641e-19 -6.959583515709e-19 0.000000000000e+00 1.879163998334e-19 -6.601010075732e-19 0.000000000000e+00 2.154757870206e-19 -6.233109161258e-19 0.000000000000e+00 2.398124100485e-19 -5.813869696188e-19 0.000000000000e+00 2.641160487353e-19 -2.551464907204e-19 0.000000000000e+00 -7.962228361672e-19 -3.151149333765e-19 0.000000000000e+00 -7.195119299771e-19 -3.556313458830e-19 0.000000000000e+00 -6.464322117002e-19 -3.851697935412e-19 0.000000000000e+00 -5.814210453536e-19 -4.066930462917e-19 0.000000000000e+00 -5.213420081418e-19 -4.314274216692e-19 0.000000000000e+00 -4.640841022289e-19 -5.259041375081e-19 0.000000000000e+00 2.848748408724e-19 -2.961551737306e-19 0.000000000000e+00 -9.148276668774e-19 -4.306298554487e-19 0.000000000000e+00 -8.988594345283e-19 -5.429254088085e-19 0.000000000000e+00 -8.757150984214e-19 -6.404325783175e-19 0.000000000000e+00 -8.439919232236e-19 -3.644042105104e-19 0.000000000000e+00 -8.057230540241e-19 -4.086138991018e-19 0.000000000000e+00 -7.158841375106e-19 -4.326769461234e-19 0.000000000000e+00 -6.341765886949e-19 -4.468640933434e-19 0.000000000000e+00 -5.683330527972e-19 -4.693943386277e-19 0.000000000000e+00 -5.143299252571e-19 -7.198303819678e-19 0.000000000000e+00 -7.982416718733e-19 -7.956379704410e-19 0.000000000000e+00 -7.374573518367e-19 -8.746163985052e-19 0.000000000000e+00 -6.687858937463e-19 -9.465300801518e-19 0.000000000000e+00 -5.962067613533e-19 -1.006556234036e-18 0.000000000000e+00 -5.165282345843e-19 -1.058500076094e-18 0.000000000000e+00 -4.324938345235e-19 -1.102060074724e-18 0.000000000000e+00 -3.454462178828e-19 -1.132076636168e-18 0.000000000000e+00 -2.539961618216e-19 -1.151587328726e-18 0.000000000000e+00 -1.601052645128e-19 -1.161471376084e-18 0.000000000000e+00 -6.660241827679e-20 -1.158015387167e-18 0.000000000000e+00 2.576731882679e-20 -1.142286502424e-18 0.000000000000e+00 1.170640947142e-19 -1.113826116731e-18 0.000000000000e+00 2.051807920604e-19 -1.073949480694e-18 0.000000000000e+00 2.889125122844e-19 -1.023568374118e-18 0.000000000000e+00 3.669544336541e-19 -9.626042886642e-19 0.000000000000e+00 4.387477626248e-19 -8.935286283910e-19 0.000000000000e+00 5.012608501905e-19 -8.196674211073e-19 0.000000000000e+00 5.531248461921e-19 -7.385437280997e-19 0.000000000000e+00 5.937790168294e-19 -6.511847914226e-19 0.000000000000e+00 6.223783808916e-19 -5.579806535631e-19 0.000000000000e+00 6.404615608820e-19 -4.643927847307e-19 0.000000000000e+00 6.497359815209e-19 -4.715460818261e-19 0.000000000000e+00 -7.943301170599e-19 -5.715982600426e-19 0.000000000000e+00 -7.764438729888e-19 -6.506926729344e-19 0.000000000000e+00 -7.628886669409e-19 -7.042257493595e-19 0.000000000000e+00 -7.078451744746e-19 -5.093972764111e-19 0.000000000000e+00 -6.900851855919e-19 -6.144099946444e-19 0.000000000000e+00 -6.944933071888e-19 -4.992121830583e-19 0.000000000000e+00 -6.042685223899e-19 -4.973355680704e-19 0.000000000000e+00 -5.552014044952e-19 -5.727876365806e-19 0.000000000000e+00 -6.155084217122e-19 -5.417229840532e-19 0.000000000000e+00 -5.663947376888e-19 -7.768438687587e-19 0.000000000000e+00 -6.425604321218e-19 -8.517237802153e-19 0.000000000000e+00 -5.748736536286e-19 -9.128470120838e-19 0.000000000000e+00 -5.055134048841e-19 -9.650801530370e-19 0.000000000000e+00 -4.327596495083e-19 -1.010185663593e-18 0.000000000000e+00 -3.565949252031e-19 -1.042706056372e-18 0.000000000000e+00 -2.756765752565e-19 -1.064789406276e-18 0.000000000000e+00 -1.912987499963e-19 -1.081544784635e-18 0.000000000000e+00 -1.073768847467e-19 -1.085540460129e-18 0.000000000000e+00 -2.456290530972e-20 -1.076441329436e-18 0.000000000000e+00 5.824331310578e-20 -1.057374386922e-18 0.000000000000e+00 1.384030232051e-19 -1.026105746860e-18 0.000000000000e+00 2.145095398494e-19 -9.839956798411e-19 0.000000000000e+00 2.878705951540e-19 -9.338639301859e-19 0.000000000000e+00 3.561132568090e-19 -8.754592878783e-19 0.000000000000e+00 4.164193038984e-19 -8.134603073510e-19 0.000000000000e+00 4.680786029591e-19 -7.452123099938e-19 0.000000000000e+00 5.094264148890e-19 -6.715782850127e-19 0.000000000000e+00 5.392636618732e-19 -5.899628983267e-19 0.000000000000e+00 5.574681078239e-19 -5.017691970958e-19 0.000000000000e+00 5.674992280547e-19 -4.138923638190e-19 0.000000000000e+00 5.735596156834e-19 -3.614396389042e-19 0.000000000000e+00 4.940356510425e-19 -3.517788302686e-19 0.000000000000e+00 4.067375682228e-19 -3.278255462646e-19 0.000000000000e+00 3.555208968464e-19 -3.362996115660e-19 0.000000000000e+00 3.129372392626e-19 -4.719021186853e-19 0.000000000000e+00 2.773039644429e-19 -4.302957677282e-19 0.000000000000e+00 2.718935623610e-19 -3.935702504047e-19 0.000000000000e+00 2.689181807606e-19 -3.788787580561e-19 0.000000000000e+00 3.024579200428e-19 -4.104716936126e-19 0.000000000000e+00 2.960565325338e-19 -3.692732813458e-19 0.000000000000e+00 3.474927022277e-19 -4.424500123908e-19 0.000000000000e+00 3.062794955137e-19 -4.094860438878e-19 0.000000000000e+00 3.292072506156e-19 -4.096315630401e-19 0.000000000000e+00 3.772101384432e-19 -4.210286230470e-19 0.000000000000e+00 4.374691343401e-19 -4.529739574840e-19 0.000000000000e+00 5.005206427692e-19 -5.375726946763e-19 0.000000000000e+00 4.878474490917e-19 -6.168139710401e-19 0.000000000000e+00 4.861986478015e-19 -6.839713023510e-19 0.000000000000e+00 4.669212406346e-19 -7.441017563300e-19 0.000000000000e+00 4.349613542824e-19 -8.006672336099e-19 0.000000000000e+00 3.924639410495e-19 -8.534266574619e-19 0.000000000000e+00 3.413343317031e-19 -9.022533352739e-19 0.000000000000e+00 2.824281788586e-19 -9.442079923853e-19 0.000000000000e+00 2.171967935283e-19 -9.803830835153e-19 0.000000000000e+00 1.494527775018e-19 -1.003043144010e-18 0.000000000000e+00 8.046893829790e-20 -1.014619215312e-18 0.000000000000e+00 8.751279286419e-21 -1.018043803924e-18 0.000000000000e+00 -6.442933226936e-20 -1.005151837793e-18 0.000000000000e+00 -1.385626092087e-19 -9.846796425942e-19 0.000000000000e+00 -2.132507991822e-19 -9.608541101140e-19 0.000000000000e+00 -2.892166473127e-19 -9.262560221638e-19 0.000000000000e+00 -3.610206476878e-19 -8.806269837199e-19 0.000000000000e+00 -4.274220070026e-19 -8.278826499009e-19 0.000000000000e+00 -4.902843405337e-19 -7.603170161019e-19 0.000000000000e+00 -5.501499496556e-19 -4.499277565628e-19 0.000000000000e+00 3.480716259219e-19 -4.603605096539e-19 0.000000000000e+00 3.962406481151e-19 -4.850289163490e-19 0.000000000000e+00 4.415145667735e-19 -4.843721399084e-19 0.000000000000e+00 3.196288162144e-19 -4.928132208685e-19 0.000000000000e+00 3.632037987700e-19 -5.010934546590e-19 0.000000000000e+00 4.017954051960e-19 -5.325806948046e-19 0.000000000000e+00 4.245363622128e-19 -5.816138582304e-19 0.000000000000e+00 4.351272461160e-19 -6.355644472933e-19 0.000000000000e+00 4.270703357179e-19 -6.866323322659e-19 0.000000000000e+00 4.039269697387e-19 -7.362524532558e-19 0.000000000000e+00 3.698619063168e-19 -7.820398119899e-19 0.000000000000e+00 3.246442550638e-19 -8.277515007649e-19 0.000000000000e+00 2.722515394756e-19 -8.685822649568e-19 0.000000000000e+00 2.135694861257e-19 -9.077078478488e-19 0.000000000000e+00 1.541035696088e-19 -9.375106553004e-19 0.000000000000e+00 9.382953673291e-20 -9.523541545301e-19 0.000000000000e+00 3.393579390831e-20 -9.593895811122e-19 0.000000000000e+00 -2.768671644541e-20 -9.535785162977e-19 0.000000000000e+00 -8.961287676357e-20 -9.270953991550e-19 0.000000000000e+00 -1.564581387876e-19 -9.107701771427e-19 0.000000000000e+00 -2.322672420026e-19 -8.854771294864e-19 0.000000000000e+00 -2.990692640500e-19 -8.502258424414e-19 0.000000000000e+00 -3.610322892200e-19 -8.049714172860e-19 0.000000000000e+00 -4.176916263532e-19 -7.495505997213e-19 0.000000000000e+00 -4.717277382345e-19 -5.298585165292e-19 0.000000000000e+00 3.802277205978e-19 -5.630659870803e-19 0.000000000000e+00 3.941027292361e-19 -6.008540670640e-19 0.000000000000e+00 3.931527317036e-19 -6.401006733843e-19 0.000000000000e+00 3.772833830832e-19 -6.816027356156e-19 0.000000000000e+00 3.499723485826e-19 -5.291360139381e-19 0.000000000000e+00 3.369147937822e-19 -5.550278001465e-19 0.000000000000e+00 3.610782732721e-19 -5.790125578642e-19 0.000000000000e+00 3.635846951511e-19 -5.798394340673e-19 0.000000000000e+00 3.234054020140e-19 -6.264924498585e-19 0.000000000000e+00 2.860583966443e-19 -6.082405525376e-19 0.000000000000e+00 3.588486288209e-19 -6.339085909228e-19 0.000000000000e+00 3.342999358817e-19 -6.651741083867e-19 0.000000000000e+00 2.586328870772e-19 -6.719516629043e-19 0.000000000000e+00 3.013272362296e-19 -7.019535890625e-19 0.000000000000e+00 2.329128619749e-19 -7.030852430034e-19 0.000000000000e+00 2.727344690356e-19 -7.206840867487e-19 0.000000000000e+00 3.139481123071e-19 -7.537669651876e-19 0.000000000000e+00 2.603872936951e-19 -7.431704034389e-19 0.000000000000e+00 2.012032685646e-19 -8.004911554356e-19 0.000000000000e+00 2.092495075582e-19 -7.734655810054e-19 0.000000000000e+00 1.580451983803e-19 -8.348494053020e-19 0.000000000000e+00 1.486136170570e-19 -8.762178670925e-19 0.000000000000e+00 9.890039412615e-20 -7.906324754003e-19 0.000000000000e+00 1.135546578250e-19 -8.273035443077e-19 0.000000000000e+00 9.219705437620e-20 -7.953854219522e-19 0.000000000000e+00 7.828741217963e-20 -8.989212801680e-19 0.000000000000e+00 4.873509169556e-20 -8.520471358982e-19 0.000000000000e+00 5.706072746155e-20 -8.123305936654e-19 0.000000000000e+00 5.339922305817e-20 -9.080312641648e-19 0.000000000000e+00 -2.199521986768e-21 -8.634408004582e-19 0.000000000000e+00 1.458271678227e-20 -8.298852480948e-19 0.000000000000e+00 2.661094185896e-20 -8.290793630295e-19 0.000000000000e+00 -8.343340596184e-21 -8.680198031167e-19 0.000000000000e+00 -3.054665285163e-20 -9.104027412832e-19 0.000000000000e+00 -5.556236525687e-20 -8.278633079802e-19 0.000000000000e+00 -5.255884995374e-20 -8.654004583756e-19 0.000000000000e+00 -7.776373725695e-20 -9.040837176144e-19 0.000000000000e+00 -1.024447556119e-19 -8.197418083000e-19 0.000000000000e+00 -9.869618224911e-20 -8.636806645275e-19 0.000000000000e+00 -1.315311237704e-19 -8.625560440123e-19 0.000000000000e+00 -1.897382996200e-19 -8.440663805231e-19 0.000000000000e+00 -2.489660497910e-19 -8.192244422389e-19 0.000000000000e+00 -3.038248299466e-19 -7.821020820605e-19 0.000000000000e+00 -3.561021003406e-19 -7.363946982271e-19 0.000000000000e+00 -4.052895140679e-19 -8.090503147936e-19 0.000000000000e+00 -1.553600928414e-19 -8.050526957959e-19 0.000000000000e+00 -2.131203170090e-19 -7.735789040453e-19 0.000000000000e+00 -1.871532003861e-19 -7.878348696977e-19 0.000000000000e+00 -2.599149108088e-19 -7.564657911037e-19 0.000000000000e+00 -2.255326156349e-19 -7.607572721705e-19 0.000000000000e+00 -3.049288352486e-19 -7.446540985256e-19 0.000000000000e+00 -2.650676469784e-19 -7.083717112740e-19 0.000000000000e+00 -2.927702250114e-19 -7.209566926273e-19 0.000000000000e+00 -3.466918618263e-19 -6.661368994780e-19 0.000000000000e+00 -3.290491198034e-19 -6.755273716408e-19 0.000000000000e+00 -3.871248433522e-19 -6.839982233942e-19 0.000000000000e+00 -4.485009412747e-19 -6.176005020582e-19 0.000000000000e+00 -3.672682699592e-19 -6.256910031273e-19 0.000000000000e+00 -4.259328610109e-19 -5.656910919546e-19 0.000000000000e+00 -4.053409308350e-19 -5.065343430033e-19 0.000000000000e+00 -4.512448088332e-19 -5.338035407476e-19 0.000000000000e+00 -5.170208169147e-19 -5.799025529996e-19 0.000000000000e+00 -4.726646390433e-19 -6.837964368363e-19 0.000000000000e+00 -5.165466670102e-19 -6.356817902997e-19 0.000000000000e+00 -4.793964035343e-19 -6.744041456841e-19 0.000000000000e+00 -6.094176829460e-19 -6.037602101320e-19 0.000000000000e+00 -5.389531517202e-19 -2.494896762073e-19 0.000000000000e+00 9.139330359176e-21 -2.788903657347e-19 0.000000000000e+00 1.834487193264e-20 -3.141351044178e-19 0.000000000000e+00 1.628141035326e-20 -3.450860579809e-19 0.000000000000e+00 1.480875653215e-20 -3.747952481111e-19 0.000000000000e+00 1.394340263990e-20 -4.075855637590e-19 0.000000000000e+00 1.390459753263e-20 -4.408493017157e-19 0.000000000000e+00 1.410638409046e-20 -4.723823318879e-19 0.000000000000e+00 1.490964981106e-20 -5.013542249799e-19 0.000000000000e+00 1.479323448924e-20 -5.292395750682e-19 0.000000000000e+00 1.280641299672e-20 -5.552001918356e-19 0.000000000000e+00 1.199926676539e-20 -5.801130707065e-19 0.000000000000e+00 1.006677242306e-20 -6.011842439572e-19 0.000000000000e+00 8.576656303679e-21 -6.157672032714e-19 0.000000000000e+00 7.792793136711e-21 -6.288755685091e-19 0.000000000000e+00 5.906864923115e-21 -6.391511609157e-19 0.000000000000e+00 2.821858894701e-21 -6.423409407338e-19 0.000000000000e+00 1.778001508986e-21 -6.392830982804e-19 0.000000000000e+00 2.607218145082e-22 -6.332372625669e-19 0.000000000000e+00 -3.460687973226e-21 -6.238153825204e-19 0.000000000000e+00 -6.828971284752e-21 -6.094652538498e-19 0.000000000000e+00 -8.218194125220e-21 -5.897212152680e-19 0.000000000000e+00 -1.186199369840e-20 -5.646143108606e-19 0.000000000000e+00 -1.335210981779e-20 -5.344937865933e-19 0.000000000000e+00 -1.474521316898e-20 -4.987154776851e-19 0.000000000000e+00 -1.762455212884e-20 -4.616566002369e-19 0.000000000000e+00 -1.965017872863e-20 -4.216640566786e-19 0.000000000000e+00 -1.982092120064e-20 -3.763396913807e-19 0.000000000000e+00 -2.011972052666e-20 -3.298123677572e-19 0.000000000000e+00 -2.200952925098e-20 -2.802970508734e-19 0.000000000000e+00 -2.437664079480e-20 -2.265286942323e-19 0.000000000000e+00 -2.665450059188e-20 -1.725740730762e-19 0.000000000000e+00 -2.755865959140e-20 -1.151114702225e-19 0.000000000000e+00 -2.683688459607e-20 -6.131983051697e-20 0.000000000000e+00 -2.504020812921e-20 -2.747401595116e-20 0.000000000000e+00 -2.742672222666e-20 -2.164936934908e-20 0.000000000000e+00 -5.788097041659e-20 -2.769520506263e-20 0.000000000000e+00 -1.219637245716e-19 -2.838981648286e-20 0.000000000000e+00 -1.832641525349e-19 -2.611971770724e-20 0.000000000000e+00 -2.462952882828e-19 -4.017027094960e-20 0.000000000000e+00 -3.852575900964e-20 -4.248452462594e-20 0.000000000000e+00 -2.664576459210e-19 -2.548688956137e-19 0.000000000000e+00 1.369184506724e-19 -8.764400263317e-20 0.000000000000e+00 -4.929534043185e-20 -9.066411429896e-20 0.000000000000e+00 -2.557074670525e-19 -2.824986849945e-19 0.000000000000e+00 1.440547099004e-19 -4.815810825676e-20 0.000000000000e+00 -2.161126758438e-19 -4.827355345090e-20 0.000000000000e+00 -8.942345933368e-20 -2.559947980834e-19 0.000000000000e+00 1.083567830002e-19 -2.737739123404e-19 0.000000000000e+00 1.206666638609e-19 -3.152461936222e-19 0.000000000000e+00 1.441442388265e-19 -2.988769362370e-19 0.000000000000e+00 1.170383863306e-19 -3.500439285635e-19 0.000000000000e+00 1.454471203033e-19 -3.881963375934e-19 0.000000000000e+00 1.456624886487e-19 -4.244602149981e-19 0.000000000000e+00 1.434302248526e-19 -4.612146210668e-19 0.000000000000e+00 1.393595690994e-19 -4.981448430779e-19 0.000000000000e+00 1.338841684628e-19 -5.340338779268e-19 0.000000000000e+00 1.262007572223e-19 -5.654587619313e-19 0.000000000000e+00 1.161890395451e-19 -5.935552556262e-19 0.000000000000e+00 1.045300450642e-19 -6.202177870089e-19 0.000000000000e+00 9.122183352398e-20 -6.404897835544e-19 0.000000000000e+00 7.614992985812e-20 -6.587415359497e-19 0.000000000000e+00 5.973536948053e-20 -6.732587307325e-19 0.000000000000e+00 4.204412107356e-20 -6.822197780521e-19 0.000000000000e+00 2.236605117408e-20 -6.859445086630e-19 0.000000000000e+00 1.349205073590e-21 -6.839237617916e-19 0.000000000000e+00 -2.009255695157e-20 -6.757646181104e-19 0.000000000000e+00 -4.088627368522e-20 -6.644652107002e-19 0.000000000000e+00 -6.204669868263e-20 -6.472268084902e-19 0.000000000000e+00 -8.453037783814e-20 -6.210199955802e-19 0.000000000000e+00 -1.066279461763e-19 -5.923593409605e-19 0.000000000000e+00 -1.271946530323e-19 -5.581961561855e-19 0.000000000000e+00 -1.478021052511e-19 -5.197860100556e-19 0.000000000000e+00 -1.658775242201e-19 -4.782586919810e-19 0.000000000000e+00 -1.812947933407e-19 -4.324244256212e-19 0.000000000000e+00 -1.968110154849e-19 -3.822602227499e-19 0.000000000000e+00 -2.108196592114e-19 -3.298082492611e-19 0.000000000000e+00 -2.223176124971e-19 -2.747087434674e-19 0.000000000000e+00 -2.311671172113e-19 -2.148682238684e-19 0.000000000000e+00 -2.367822162341e-19 -1.500764779455e-19 0.000000000000e+00 -2.437244499257e-19 -2.558592573873e-19 0.000000000000e+00 7.112716307997e-20 -2.787074273718e-19 0.000000000000e+00 9.246234964978e-20 -2.647215296747e-19 0.000000000000e+00 3.564709913917e-20 -3.003525004412e-19 0.000000000000e+00 3.130286737966e-20 -2.869251017858e-19 0.000000000000e+00 6.267624225334e-20 -3.324479621369e-19 0.000000000000e+00 2.867673174478e-20 -3.621270783090e-19 0.000000000000e+00 2.629118777501e-20 -3.921887772170e-19 0.000000000000e+00 2.458182279952e-20 -4.245837052016e-19 0.000000000000e+00 2.426556117522e-20 -4.566498925366e-19 0.000000000000e+00 2.444212441333e-20 -4.868715222983e-19 0.000000000000e+00 2.492524799891e-20 -5.160714863450e-19 0.000000000000e+00 2.412198227830e-20 -5.433887963591e-19 0.000000000000e+00 2.197800010132e-20 -5.687705273279e-19 0.000000000000e+00 1.944014608550e-20 -5.924989030367e-19 0.000000000000e+00 1.666364065992e-20 -6.095999594891e-19 0.000000000000e+00 1.468652044423e-20 -6.240422379733e-19 0.000000000000e+00 1.186732940065e-20 -6.363728715542e-19 0.000000000000e+00 7.773390583073e-21 -6.427322484607e-19 0.000000000000e+00 4.742711704845e-21 -6.430802893457e-19 0.000000000000e+00 1.475321672236e-21 -6.393590358774e-19 0.000000000000e+00 -3.937990792717e-21 -6.310218059487e-19 0.000000000000e+00 -9.289215086028e-21 -6.191950163270e-19 0.000000000000e+00 -1.312315968486e-20 -6.021515536266e-19 0.000000000000e+00 -1.717635313980e-20 -5.795026926473e-19 0.000000000000e+00 -2.133043987366e-20 -5.515179357355e-19 0.000000000000e+00 -2.431261236779e-20 -5.192723117868e-19 0.000000000000e+00 -2.814849722199e-20 -4.818602027020e-19 0.000000000000e+00 -3.237437340431e-20 -4.435049239267e-19 0.000000000000e+00 -3.568056854419e-20 -4.008887117379e-19 0.000000000000e+00 -3.897706240726e-20 -3.545922709236e-19 0.000000000000e+00 -4.204848664813e-20 -3.074557374324e-19 0.000000000000e+00 -4.377725417726e-20 -2.558625055826e-19 0.000000000000e+00 -4.613466444425e-20 -2.023700896340e-19 0.000000000000e+00 -5.011994896146e-20 -1.455776024765e-19 0.000000000000e+00 -5.339898052625e-20 -1.129729623374e-19 0.000000000000e+00 -1.167686215402e-19 -1.048693472209e-19 0.000000000000e+00 -1.924299188734e-19 -5.184847395867e-20 0.000000000000e+00 -1.538748620078e-19 -3.305882273708e-19 0.000000000000e+00 1.141546817962e-19 -3.096201301863e-19 0.000000000000e+00 8.791854876714e-20 -3.208057023585e-19 0.000000000000e+00 5.880210665055e-20 -3.528012409030e-19 0.000000000000e+00 5.479838970738e-20 -3.801960701821e-19 0.000000000000e+00 5.072676382648e-20 -3.430550956788e-19 0.000000000000e+00 8.373147769210e-20 -3.720818009848e-19 0.000000000000e+00 7.894341251813e-20 -3.680403876518e-19 0.000000000000e+00 1.105391545155e-19 -4.098139356756e-19 0.000000000000e+00 4.935888379502e-20 -3.970137186116e-19 0.000000000000e+00 7.438623773245e-20 -3.886052581947e-19 0.000000000000e+00 9.407653124072e-20 -4.026004413997e-19 0.000000000000e+00 1.151218990951e-19 -4.411390667277e-19 0.000000000000e+00 4.888740174162e-20 -4.253667915085e-19 0.000000000000e+00 7.543106524584e-20 -4.106985579710e-19 0.000000000000e+00 9.278141078539e-20 -4.364348049941e-19 0.000000000000e+00 1.066662662197e-19 -4.715006677240e-19 0.000000000000e+00 4.915515698182e-20 -5.025030077377e-19 0.000000000000e+00 4.847994811522e-20 -5.322367542249e-19 0.000000000000e+00 4.566269732701e-20 -5.593657382027e-19 0.000000000000e+00 4.100608445394e-20 -5.842318159921e-19 0.000000000000e+00 3.583336365409e-20 -6.044221890988e-19 0.000000000000e+00 3.147555010704e-20 -6.208945270221e-19 0.000000000000e+00 2.575373703924e-20 -6.353682797074e-19 0.000000000000e+00 1.874359440990e-20 -6.444126730306e-19 0.000000000000e+00 1.217971051422e-20 -6.485379529408e-19 0.000000000000e+00 4.760174003119e-21 -6.482066074417e-19 0.000000000000e+00 -4.062167135999e-21 -6.417510959977e-19 0.000000000000e+00 -1.257212716155e-20 -6.311149453116e-19 0.000000000000e+00 -2.129357502175e-20 -6.168314631812e-19 0.000000000000e+00 -3.050784774435e-20 -5.966053038264e-19 0.000000000000e+00 -3.821648230466e-20 -5.705386503389e-19 0.000000000000e+00 -4.543811276866e-20 -5.410728012597e-19 0.000000000000e+00 -5.266168348802e-20 -5.060382212226e-19 0.000000000000e+00 -5.963108075472e-20 -4.681634171296e-19 0.000000000000e+00 -6.735329710258e-20 -4.276105452542e-19 0.000000000000e+00 -7.419463751527e-20 -3.824192390312e-19 0.000000000000e+00 -7.995525569034e-20 -3.340827712843e-19 0.000000000000e+00 -8.482917716416e-20 -2.855335575684e-19 0.000000000000e+00 -8.817999817741e-20 -2.347914535979e-19 0.000000000000e+00 -9.319749854816e-20 -1.828452999083e-19 0.000000000000e+00 -1.046833252379e-19 -1.765814886312e-19 0.000000000000e+00 -1.723317836877e-19 -2.210430102423e-19 0.000000000000e+00 -1.355608401354e-19 -2.402756460166e-19 0.000000000000e+00 -1.817614247557e-19 -2.661357939360e-19 0.000000000000e+00 -1.344036718365e-19 -2.954609954031e-19 0.000000000000e+00 -1.788694741360e-19 -3.148657318282e-19 0.000000000000e+00 -1.295190789582e-19 -3.471325423258e-19 0.000000000000e+00 -1.712403900456e-19 -3.643614339429e-19 0.000000000000e+00 -1.226874398223e-19 -3.970047146140e-19 0.000000000000e+00 -1.617020946772e-19 -4.435062616418e-19 0.000000000000e+00 -1.501129493893e-19 -4.117201115150e-19 0.000000000000e+00 -1.147828394702e-19 -4.553446463736e-19 0.000000000000e+00 -1.063310871056e-19 -4.868829288777e-19 0.000000000000e+00 -1.368745870423e-19 -4.957627273446e-19 0.000000000000e+00 -9.580714201244e-20 -5.252012575359e-19 0.000000000000e+00 -1.231977269830e-19 -5.318077967331e-19 0.000000000000e+00 -8.493201069844e-20 -5.603153657792e-19 0.000000000000e+00 -1.082926852784e-19 -5.644797151187e-19 0.000000000000e+00 -7.405687938444e-20 -5.909071873293e-19 0.000000000000e+00 -9.246796253137e-20 -5.920512968771e-19 0.000000000000e+00 -6.264235707931e-20 -6.172295876183e-19 0.000000000000e+00 -7.550430988582e-20 -6.163714819725e-19 0.000000000000e+00 -5.107067408971e-20 -6.400399416388e-19 0.000000000000e+00 -5.790813399168e-20 -6.349153248190e-19 0.000000000000e+00 -3.771201591007e-20 -6.544437818926e-19 0.000000000000e+00 -4.145670876217e-20 -6.464508037614e-19 0.000000000000e+00 -2.387411465558e-20 -6.636159222732e-19 0.000000000000e+00 -2.465021680109e-20 -6.542145589113e-19 0.000000000000e+00 -1.149916594538e-20 -6.690279254447e-19 0.000000000000e+00 -7.054040906951e-21 -6.580046582864e-19 0.000000000000e+00 -4.389827760557e-23 -6.689412937059e-19 0.000000000000e+00 8.792024649059e-21 -6.552472238279e-19 0.000000000000e+00 1.190419425257e-20 -6.634150461574e-19 0.000000000000e+00 2.411810176757e-20 -6.478510158558e-19 0.000000000000e+00 2.286275654721e-20 -6.528515749930e-19 0.000000000000e+00 3.906970960088e-20 -6.360413143132e-19 0.000000000000e+00 3.302387388734e-20 -6.373231390929e-19 0.000000000000e+00 5.224016301023e-20 -6.188892143655e-19 0.000000000000e+00 4.257575104324e-20 -6.191084518529e-19 0.000000000000e+00 6.493137334473e-20 -6.003726563601e-19 0.000000000000e+00 5.126615481762e-20 -5.974102653757e-19 0.000000000000e+00 7.676305055308e-20 -5.772554686700e-19 0.000000000000e+00 5.917075516966e-20 -5.508325860622e-19 0.000000000000e+00 6.607612400937e-20 -5.710325543381e-19 0.000000000000e+00 8.614418523697e-20 -5.423849264237e-19 0.000000000000e+00 9.455907274969e-20 -5.210919577318e-19 0.000000000000e+00 7.190077061144e-20 -5.099963042691e-19 0.000000000000e+00 1.017574201493e-19 -4.885764307498e-19 0.000000000000e+00 7.625858415850e-20 -4.743700022421e-19 0.000000000000e+00 1.065382093657e-19 -4.564610814365e-19 0.000000000000e+00 7.709968485869e-20 4.070838137219e-18 0.000000000000e+00 8.508128181954e-18 3.678246866912e-18 0.000000000000e+00 7.760547790288e-18 3.079823816658e-18 0.000000000000e+00 8.602566231275e-18 1.447160176819e-18 0.000000000000e+00 9.515693091089e-18 2.307835772323e-18 0.000000000000e+00 9.989892472125e-18 2.177596858625e-18 0.000000000000e+00 9.045251984692e-18 2.483717010667e-18 0.000000000000e+00 1.105901101255e-17 3.739668560835e-18 0.000000000000e+00 1.040819794677e-17 1.397895213510e-18 0.000000000000e+00 1.183664790005e-17 2.481991153521e-18 0.000000000000e+00 1.244608793058e-17 3.980086360874e-18 0.000000000000e+00 1.773735057213e-17 2.485911439483e-18 0.000000000000e+00 1.917387738407e-17 4.724926354053e-18 0.000000000000e+00 1.990106526743e-17 8.918173261918e-18 0.000000000000e+00 3.901988845125e-17 3.738251689356e-18 0.000000000000e+00 4.362151982302e-17 1.020780085431e-17 0.000000000000e+00 4.661858862770e-17 1.921963412315e-17 0.000000000000e+00 8.979959214533e-17 -1.196896967789e-18 0.000000000000e+00 1.060915470589e-16 2.705036701324e-17 0.000000000000e+00 1.199403957192e-16 1.181705471633e-16 0.000000000000e+00 6.575708255696e-16 -3.942062336137e-16 0.000000000000e+00 2.814679860118e-16 2.733798280436e-16 0.000000000000e+00 -3.933094143576e-16 3.426121082157e-16 0.000000000000e+00 -4.994941169571e-16 7.804802323032e-17 0.000000000000e+00 -8.390889185345e-16 2.609344102287e-16 0.000000000000e+00 -1.682822177827e-16 2.192263704880e-16 0.000000000000e+00 -2.209054371633e-16 1.194840777316e-16 0.000000000000e+00 -1.597090473903e-17 1.281324415080e-16 0.000000000000e+00 -4.791226165253e-17 1.047132325766e-16 0.000000000000e+00 -2.844299427428e-17 1.744113071145e-16 0.000000000000e+00 -7.985277067443e-17 1.369471661747e-16 0.000000000000e+00 -7.348975996138e-17 2.720780605126e-16 0.000000000000e+00 -5.308800537023e-17 2.085441117136e-16 0.000000000000e+00 5.968538243906e-17 3.018044258193e-16 0.000000000000e+00 2.093777940900e-16 7.129274696733e-17 0.000000000000e+00 3.008938062218e-16 3.365531447344e-17 0.000000000000e+00 1.636665079180e-16 -1.198399695568e-18 0.000000000000e+00 2.437218895163e-16 7.503680826630e-17 0.000000000000e+00 1.205996345864e-16 1.311472316350e-16 0.000000000000e+00 7.871085617808e-17 8.565048046876e-17 0.000000000000e+00 7.404843806095e-17 1.389783845904e-16 0.000000000000e+00 1.702217438530e-17 1.020528882994e-16 0.000000000000e+00 9.201888800211e-18 8.201283296027e-17 0.000000000000e+00 2.138681278060e-17 8.315596836231e-17 0.000000000000e+00 9.090027257722e-18 5.141416331753e-17 0.000000000000e+00 2.900215016174e-17 6.520612126527e-17 0.000000000000e+00 2.659404684285e-17 5.518355877333e-17 0.000000000000e+00 2.174634403976e-17 7.783369704460e-17 0.000000000000e+00 4.389171929991e-17 5.848686366032e-17 0.000000000000e+00 6.372011242396e-17 4.294367778736e-17 0.000000000000e+00 5.392667153501e-17 3.483853070065e-17 0.000000000000e+00 7.161739122239e-17 1.519562210888e-17 0.000000000000e+00 7.004780660888e-17 1.221387938131e-17 0.000000000000e+00 5.661587614062e-17 2.363871802421e-18 0.000000000000e+00 6.457750496338e-17 2.037597296294e-17 0.000000000000e+00 4.796454522875e-17 3.229478509941e-17 0.000000000000e+00 4.539611375852e-17 2.547935194646e-17 0.000000000000e+00 3.877144554281e-17 4.384850617498e-17 0.000000000000e+00 3.865844992106e-17 4.093050786954e-17 0.000000000000e+00 2.790758032158e-17 3.319039436368e-17 0.000000000000e+00 2.637060315465e-17 3.737465000692e-17 0.000000000000e+00 2.345704973171e-17 2.324268668114e-17 0.000000000000e+00 2.187407493087e-17 2.736175471606e-17 0.000000000000e+00 2.427112461495e-17 2.697836995746e-17 0.000000000000e+00 2.097125858806e-17 2.728846545021e-17 0.000000000000e+00 3.025301921298e-17 2.040069666691e-17 0.000000000000e+00 3.317469066436e-17 1.690298280058e-17 0.000000000000e+00 2.878733769952e-17 1.365625066683e-17 0.000000000000e+00 3.439440988586e-17 7.805973291397e-18 0.000000000000e+00 3.354821795559e-17 6.941869408668e-18 0.000000000000e+00 2.898946477217e-17 3.961742428752e-18 0.000000000000e+00 3.195230553198e-17 9.840726852417e-18 0.000000000000e+00 2.584097552851e-17 6.096432237731e-18 0.000000000000e+00 2.543495187031e-17 5.325351958163e-18 0.000000000000e+00 2.240115694197e-17 3.431366106573e-18 0.000000000000e+00 2.441591617147e-17 7.420704544832e-18 0.000000000000e+00 1.998982794854e-17 1.037613449929e-17 0.000000000000e+00 1.947656055563e-17 9.034067625180e-18 0.000000000000e+00 1.733099998091e-17 1.345778993725e-17 0.000000000000e+00 1.837197220690e-17 1.201333555703e-17 0.000000000000e+00 2.198468791903e-17 1.406861119904e-17 0.000000000000e+00 2.499543552403e-17 1.853061063836e-17 0.000000000000e+00 2.339827842661e-17 1.973071167575e-17 0.000000000000e+00 1.962212336366e-17 1.737265131239e-17 0.000000000000e+00 1.746764149478e-17 2.055048404342e-17 0.000000000000e+00 1.691800110469e-17 1.505215865715e-17 0.000000000000e+00 1.563643624346e-17 1.581027113166e-17 0.000000000000e+00 1.327225157487e-17 1.294865408757e-17 0.000000000000e+00 1.364911901571e-17 9.547303003880e-18 0.000000000000e+00 1.142417192265e-17 1.123361774565e-17 0.000000000000e+00 1.237841473388e-17 1.104844510943e-17 0.000000000000e+00 1.109991838651e-17 1.017219619825e-17 0.000000000000e+00 1.476356774219e-17 7.925861670325e-18 0.000000000000e+00 1.550740732152e-17 7.002389368912e-18 0.000000000000e+00 1.393411342481e-17 5.767624437188e-18 0.000000000000e+00 1.585257584035e-17 3.487277232731e-18 0.000000000000e+00 1.587803562870e-17 2.739947134008e-18 0.000000000000e+00 1.404210512798e-17 1.471179712098e-18 0.000000000000e+00 1.511806088577e-17 4.536004659409e-18 0.000000000000e+00 1.278398243206e-17 6.228704781582e-18 0.000000000000e+00 1.257590362608e-17 5.567846043656e-18 0.000000000000e+00 1.136351080883e-17 7.854762952775e-18 0.000000000000e+00 1.210265302992e-17 8.429170217520e-18 0.000000000000e+00 1.048090804640e-17 7.472770812456e-18 0.000000000000e+00 9.631370145750e-18 8.520713769637e-18 0.000000000000e+00 9.523973130854e-18 6.032868986949e-18 0.000000000000e+00 8.081952061427e-18 6.698160238254e-18 0.000000000000e+00 8.828865975374e-18 6.898799135039e-18 0.000000000000e+00 8.062425331445e-18 6.249155073116e-18 0.000000000000e+00 9.979762398871e-18 5.003026065727e-18 0.000000000000e+00 1.029736473962e-17 4.506382780770e-18 0.000000000000e+00 9.344678983325e-18 5.066227943947e-18 0.000000000000e+00 8.273031320035e-18 5.434346773351e-18 0.000000000000e+00 7.393021708898e-18 4.925640920798e-18 0.000000000000e+00 6.760133692296e-18 5.655192459623e-18 0.000000000000e+00 6.763556302758e-18 3.317310862864e-18 0.000000000000e+00 4.814748293332e-18 3.662368787142e-18 0.000000000000e+00 5.238926920962e-18 3.810792986769e-18 0.000000000000e+00 4.823184523654e-18 2.255995059386e-18 0.000000000000e+00 3.560074401321e-18 2.478897416343e-18 0.000000000000e+00 3.823326308824e-18 2.562361138795e-18 0.000000000000e+00 3.575526595038e-18 1.642349712938e-18 0.000000000000e+00 2.656886499608e-18 1.751498117682e-18 0.000000000000e+00 2.869457966881e-18 1.891964423824e-18 0.000000000000e+00 2.672357125751e-18 1.010302609454e-18 0.000000000000e+00 1.876285872034e-18 1.177629261898e-18 0.000000000000e+00 2.013941169328e-18 1.194804402379e-18 0.000000000000e+00 1.874923812769e-18 6.308197043836e-19 0.000000000000e+00 1.422130299034e-18 7.032213034108e-19 0.000000000000e+00 1.525010399443e-18 7.429771358147e-19 0.000000000000e+00 1.435991483352e-18 2.763825856770e-19 0.000000000000e+00 9.217733653107e-19 3.330496838316e-19 0.000000000000e+00 9.951887477655e-19 3.784565099825e-19 0.000000000000e+00 9.271595142006e-19 1.114327460527e-19 0.000000000000e+00 7.098897185642e-19 1.469025543580e-19 0.000000000000e+00 7.583378949979e-19 1.691276944863e-19 0.000000000000e+00 7.132618823865e-19 -2.017865578334e-21 0.000000000000e+00 5.474787030835e-19 2.377491910011e-20 0.000000000000e+00 5.837052109806e-19 3.989359053473e-20 0.000000000000e+00 5.488601649025e-19 -7.874138342837e-20 0.000000000000e+00 4.306675691623e-19 -6.078917067498e-20 0.000000000000e+00 4.553068720270e-19 -5.147236758300e-20 0.000000000000e+00 4.329958755989e-19 -1.216466624025e-19 0.000000000000e+00 3.355640122512e-19 -1.124859949186e-19 0.000000000000e+00 3.596891474444e-19 -9.897184061932e-20 0.000000000000e+00 3.425489315608e-19 -1.295411493629e-19 0.000000000000e+00 3.197994374204e-19 -1.520513104462e-19 0.000000000000e+00 3.293707171300e-19 -1.155366348371e-19 0.000000000000e+00 2.984255843330e-19 -1.392424261818e-19 0.000000000000e+00 2.897254792818e-19 -1.694968280693e-19 0.000000000000e+00 2.193504769821e-19 -1.628601845975e-19 0.000000000000e+00 2.384910961458e-19 -1.568943844177e-19 0.000000000000e+00 2.251945261378e-19 -1.778379858782e-19 0.000000000000e+00 1.573321545341e-19 -1.807619507114e-19 0.000000000000e+00 1.745771442074e-19 -1.724052708596e-19 0.000000000000e+00 1.654385414440e-19 -1.949219343563e-19 0.000000000000e+00 8.746743939507e-20 -1.966953277588e-19 0.000000000000e+00 1.044000479548e-19 -1.845047033081e-19 0.000000000000e+00 9.387804311700e-20 -1.859366117666e-19 0.000000000000e+00 4.377288860269e-20 -1.891225110739e-19 0.000000000000e+00 5.772138441292e-20 -1.831562258303e-19 0.000000000000e+00 5.185987295893e-20 -1.922870675723e-19 0.000000000000e+00 5.953431051845e-21 -1.987568490828e-19 0.000000000000e+00 1.627558958717e-20 -1.841845611731e-19 0.000000000000e+00 1.530352164991e-20 -1.857212434212e-19 0.000000000000e+00 1.793523551896e-21 -1.817029745628e-19 0.000000000000e+00 1.432369269120e-20 -1.809418487634e-19 0.000000000000e+00 1.060228290347e-20 -1.812586560845e-19 0.000000000000e+00 2.962454648999e-20 -1.824926584959e-19 0.000000000000e+00 2.734280618218e-20 -1.788430381566e-19 0.000000000000e+00 2.945380401798e-20 -1.875994106134e-19 0.000000000000e+00 2.688878642706e-20 -2.082805925359e-19 0.000000000000e+00 2.789771921622e-20 -2.078847804417e-19 0.000000000000e+00 3.197419573553e-20 -2.290665482481e-19 0.000000000000e+00 1.428682783929e-20 -2.476386725903e-19 0.000000000000e+00 1.122316461988e-20 -2.460049775740e-19 0.000000000000e+00 1.310133181202e-20 -2.520391717553e-19 0.000000000000e+00 2.037922968157e-20 -2.499436959624e-19 0.000000000000e+00 3.254851132321e-20 -2.429704181850e-19 0.000000000000e+00 5.743616687444e-20 -2.514241108050e-19 0.000000000000e+00 4.800070504037e-20 -2.608430804685e-19 0.000000000000e+00 5.425026756711e-20 -2.307118847966e-19 0.000000000000e+00 3.851867707757e-20 -2.115402215471e-19 0.000000000000e+00 4.555792353737e-20 -2.140373302003e-19 0.000000000000e+00 6.399228974866e-20 -1.985793157170e-19 0.000000000000e+00 6.176293633568e-20 -1.936083814750e-19 0.000000000000e+00 6.738191586919e-20 -1.962180249393e-19 0.000000000000e+00 9.398475716201e-20 -1.870905786442e-19 0.000000000000e+00 8.342394721694e-20 -2.099162278076e-19 0.000000000000e+00 9.555054324058e-20 -2.141886701186e-19 0.000000000000e+00 7.885658609060e-20 -2.124502013127e-19 0.000000000000e+00 9.784586533594e-20 -2.342741936445e-19 0.000000000000e+00 7.020692767886e-20 -2.412135169531e-19 0.000000000000e+00 7.285343599506e-20 -2.411543391645e-19 0.000000000000e+00 1.052168954629e-19 -2.500591411566e-19 0.000000000000e+00 8.783220740346e-20 -2.394798987856e-19 0.000000000000e+00 1.265985095718e-19 -2.375609862308e-19 0.000000000000e+00 1.164082884012e-19 -2.557159556697e-19 0.000000000000e+00 1.222368155140e-19 -2.302695065737e-19 0.000000000000e+00 9.932628017850e-20 -2.141149404148e-19 0.000000000000e+00 1.098153006751e-19 -2.113947023948e-19 0.000000000000e+00 1.321922657856e-19 -1.971959136426e-19 0.000000000000e+00 1.146601183185e-19 -1.918485698601e-19 0.000000000000e+00 1.240296114702e-19 -1.820483400176e-19 0.000000000000e+00 1.434748507260e-19 -1.799887589489e-19 0.000000000000e+00 1.316082489211e-19 -1.936374853055e-19 0.000000000000e+00 1.522273426720e-19 -2.085425270100e-19 0.000000000000e+00 1.522234621613e-19 -2.131021271149e-19 0.000000000000e+00 1.626174101451e-19 -2.252946918209e-19 0.000000000000e+00 1.432730641682e-19 -2.408899292490e-19 0.000000000000e+00 1.477143086959e-19 -2.447362029283e-19 0.000000000000e+00 1.584710844327e-19 -2.561644364820e-19 0.000000000000e+00 1.518140682795e-19 -2.436145829658e-19 0.000000000000e+00 1.796489717284e-19 -2.567166957689e-19 0.000000000000e+00 1.870976120699e-19 -2.427317667753e-19 0.000000000000e+00 1.957569717585e-19 -2.281748734692e-19 0.000000000000e+00 1.725456968416e-19 -2.109872487684e-19 0.000000000000e+00 1.801049317388e-19 -2.091983333230e-19 0.000000000000e+00 2.033491909970e-19 -1.877895556390e-19 0.000000000000e+00 1.844724465627e-19 -1.775023217003e-19 0.000000000000e+00 1.930638973136e-19 -1.708123212059e-19 0.000000000000e+00 2.079786402949e-19 -1.650905081381e-19 0.000000000000e+00 1.954581724325e-19 -1.818096886079e-19 0.000000000000e+00 2.209376058696e-19 -2.063422774275e-19 0.000000000000e+00 2.193465964713e-19 -2.036841275791e-19 0.000000000000e+00 2.313606576839e-19 -2.279800052444e-19 0.000000000000e+00 2.203109033871e-19 -2.397660864517e-19 0.000000000000e+00 2.249306514083e-19 -2.389831934124e-19 0.000000000000e+00 2.468438954869e-19 -2.579957557221e-19 0.000000000000e+00 2.341041787683e-19 -2.355858062704e-19 0.000000000000e+00 2.849931964496e-19 -2.372990517567e-19 0.000000000000e+00 2.692635462154e-19 -2.592171464736e-19 0.000000000000e+00 2.784661774058e-19 -2.172969592114e-19 0.000000000000e+00 2.546107377081e-19 -1.944795561333e-19 0.000000000000e+00 2.517255779821e-19 -1.889886334538e-19 0.000000000000e+00 2.689569858679e-19 -1.765399550398e-19 0.000000000000e+00 2.463142057726e-19 -1.607171725482e-19 0.000000000000e+00 2.503557576953e-19 -1.461225717018e-19 0.000000000000e+00 2.692926500458e-19 -1.395354047418e-19 0.000000000000e+00 2.552025155940e-19 -1.640951571365e-19 0.000000000000e+00 2.868189767469e-19 -1.832299555341e-19 0.000000000000e+00 2.932062974044e-19 -1.777487341315e-19 0.000000000000e+00 3.124672124007e-19 -2.088878924648e-19 0.000000000000e+00 2.923952706624e-19 -2.315558958799e-19 0.000000000000e+00 3.092366872200e-19 -2.270448021591e-19 0.000000000000e+00 3.343300098398e-19 -2.491991229666e-19 0.000000000000e+00 3.252457342266e-19 -2.030457835644e-19 0.000000000000e+00 4.432326628982e-19 -2.085289452225e-19 0.000000000000e+00 4.152405987649e-19 -2.326113947978e-19 0.000000000000e+00 4.347925520657e-19 -8.158191728095e-20 0.000000000000e+00 5.685634581217e-19 -9.873959546288e-20 0.000000000000e+00 5.318208422977e-19 -1.219722131888e-19 0.000000000000e+00 5.821433054128e-19 -1.203834149458e-19 0.000000000000e+00 7.402139696448e-19 -1.273346539932e-19 0.000000000000e+00 6.921790676036e-19 -1.609520631357e-19 0.000000000000e+00 7.199712854344e-19 8.312830080589e-20 0.000000000000e+00 9.098097507376e-19 5.276524461806e-20 0.000000000000e+00 8.499877973615e-19 -6.387320657571e-21 0.000000000000e+00 8.807195020684e-19 8.923234418035e-20 0.000000000000e+00 1.326673615646e-18 5.836676185330e-20 0.000000000000e+00 1.238132002375e-18 1.042499206960e-20 0.000000000000e+00 1.295971014770e-18 6.555075136324e-19 0.000000000000e+00 1.988084356223e-18 5.836229926596e-19 0.000000000000e+00 1.852334389696e-18 4.981198192885e-19 0.000000000000e+00 2.050748783707e-18 1.031715267648e-18 0.000000000000e+00 2.689864049898e-18 9.285053238273e-19 0.000000000000e+00 2.494697643366e-18 7.926758068303e-19 0.000000000000e+00 2.737898951940e-18 1.548347063363e-18 0.000000000000e+00 3.670686419355e-18 1.406440666566e-18 0.000000000000e+00 3.398395832240e-18 1.195437895755e-18 0.000000000000e+00 3.709145191048e-18 2.260343171656e-18 0.000000000000e+00 5.049306734387e-18 2.057536039501e-18 0.000000000000e+00 4.648805042962e-18 1.750222872943e-18 0.000000000000e+00 5.099772776399e-18 1.820340791407e-18 0.000000000000e+00 6.972863290381e-18 1.679805185025e-18 0.000000000000e+00 6.412232323783e-18 1.329351410580e-18 0.000000000000e+00 6.747436661196e-18 2.106174360961e-18 0.000000000000e+00 6.025872183576e-18 1.543261654054e-18 0.000000000000e+00 5.909009632887e-18 1.395444269292e-18 0.000000000000e+00 5.447675115041e-18 1.096417933392e-18 0.000000000000e+00 5.737723889373e-18 1.274672104046e-18 0.000000000000e+00 5.031373924188e-18 1.146762709444e-18 0.000000000000e+00 4.627077093270e-18 8.830989827402e-19 0.000000000000e+00 4.894042649539e-18 1.445955907305e-18 0.000000000000e+00 4.338191502029e-18 1.043750671670e-18 0.000000000000e+00 4.279090353521e-18 9.470405833175e-19 0.000000000000e+00 3.941330699793e-18 7.240848693376e-19 0.000000000000e+00 4.166947474005e-18 8.625395518417e-19 0.000000000000e+00 3.653955597353e-18 7.846586716672e-19 0.000000000000e+00 3.379698561427e-18 6.077791719387e-19 0.000000000000e+00 3.564602957340e-18 9.806050608555e-19 0.000000000000e+00 3.183104126947e-18 7.087209572395e-19 0.000000000000e+00 3.141701017739e-18 6.387107229481e-19 0.000000000000e+00 2.914671737623e-18 5.016442931568e-19 0.000000000000e+00 3.071153332712e-18 5.700315038363e-19 0.000000000000e+00 2.715927500200e-18 5.041006564473e-19 0.000000000000e+00 2.527540345909e-18 3.959095920436e-19 0.000000000000e+00 2.660277095856e-18 6.318305774281e-19 0.000000000000e+00 2.364200918237e-18 4.440070673202e-19 0.000000000000e+00 2.359312444848e-18 3.763251394654e-19 0.000000000000e+00 2.201039994058e-18 2.855616912711e-19 0.000000000000e+00 2.314232551726e-18 3.204661576698e-19 0.000000000000e+00 2.057377666157e-18 2.388046899190e-19 0.000000000000e+00 1.910577945334e-18 1.585916227972e-19 0.000000000000e+00 2.007485939733e-18 3.760020869474e-19 0.000000000000e+00 1.785629380417e-18 1.948404436310e-19 0.000000000000e+00 1.766060934945e-18 1.699702503781e-19 0.000000000000e+00 1.629456285931e-18 7.452909744169e-20 0.000000000000e+00 1.714772224659e-18 1.371092060036e-19 0.000000000000e+00 1.521750770432e-18 2.910029304341e-19 0.000000000000e+00 1.564009532255e-18 1.193121953236e-19 0.000000000000e+00 1.420935101730e-18 4.643415714156e-20 0.000000000000e+00 1.482596417191e-18 2.027592321004e-19 0.000000000000e+00 1.356555488504e-18 3.409449391256e-19 0.000000000000e+00 1.392265888474e-18 2.870011182191e-19 0.000000000000e+00 1.291923642081e-18 3.700601078904e-19 0.000000000000e+00 1.224798567515e-18 2.389797979655e-19 0.000000000000e+00 1.202741744540e-18 1.941759061689e-19 0.000000000000e+00 1.119793887483e-18 1.208221268219e-19 0.000000000000e+00 1.170281272304e-18 2.848294874032e-20 0.000000000000e+00 1.156354119303e-18 -5.523907020688e-21 0.000000000000e+00 1.080010891504e-18 -4.654624111330e-20 0.000000000000e+00 1.132477336796e-18 5.282054189593e-20 0.000000000000e+00 1.015169497502e-18 -3.247793453435e-20 0.000000000000e+00 1.007330865832e-18 -7.358418467144e-20 0.000000000000e+00 9.341124192967e-19 -1.116626663134e-19 0.000000000000e+00 9.816030797083e-19 -9.658397175372e-20 0.000000000000e+00 8.604118193034e-19 -1.063638289149e-19 0.000000000000e+00 7.944227642535e-19 -1.492010027915e-19 0.000000000000e+00 8.327592998588e-19 -5.430837352235e-20 0.000000000000e+00 7.646010393122e-19 -1.402222551405e-20 0.000000000000e+00 7.687493052799e-19 -3.999254355828e-20 0.000000000000e+00 7.233356882352e-19 7.128498206536e-21 0.000000000000e+00 7.024197354137e-19 -9.289942681789e-21 0.000000000000e+00 6.671497734108e-19 -2.550271650155e-20 0.000000000000e+00 6.959237604557e-19 -5.539041012526e-20 0.000000000000e+00 6.871111205934e-19 -7.049335787694e-20 0.000000000000e+00 6.455547312119e-19 -9.172751257817e-20 0.000000000000e+00 6.662087495594e-19 -1.389145230254e-19 0.000000000000e+00 6.509796852091e-19 -1.505133695900e-19 0.000000000000e+00 6.131932119994e-19 -1.732085365802e-19 0.000000000000e+00 6.378868420143e-19 -1.607986632735e-19 0.000000000000e+00 5.748906308630e-19 -1.740700099617e-19 0.000000000000e+00 5.402066259800e-19 -1.948160085400e-19 0.000000000000e+00 5.633771555343e-19 -1.472886651754e-19 0.000000000000e+00 5.092265685865e-19 -1.848073831449e-19 0.000000000000e+00 5.065936420579e-19 -1.938004667560e-19 0.000000000000e+00 4.737955653885e-19 -2.168082573917e-19 0.000000000000e+00 4.973580265262e-19 -1.699566685905e-19 0.000000000000e+00 4.455376862704e-19 -1.358683221042e-19 0.000000000000e+00 4.381259107807e-19 -1.441435112307e-19 0.000000000000e+00 4.168316081632e-19 -1.450845350822e-19 0.000000000000e+00 3.935660060961e-19 -1.624226570129e-19 0.000000000000e+00 4.037368247130e-19 -1.849140971899e-19 0.000000000000e+00 3.947049359946e-19 -1.689263929923e-19 0.000000000000e+00 3.785794736662e-19 -2.127218370636e-19 0.000000000000e+00 3.897281809865e-19 -2.189752801011e-19 0.000000000000e+00 3.593787065862e-19 -2.409554629897e-19 0.000000000000e+00 3.792702045757e-19 -1.989615460237e-19 0.000000000000e+00 3.396715328563e-19 -1.717708073556e-19 0.000000000000e+00 3.339206159580e-19 -1.654009489963e-19 0.000000000000e+00 3.585521578013e-19 -1.520539323489e-19 0.000000000000e+00 3.727664685963e-19 -1.351038614909e-19 0.000000000000e+00 3.762589282511e-19 -1.032118840764e-19 0.000000000000e+00 3.790490154643e-19 -9.314583924909e-20 0.000000000000e+00 4.037368247130e-19 -8.108327165246e-20 0.000000000000e+00 3.859252804735e-19 -1.058079457531e-19 0.000000000000e+00 4.289562639315e-19 -1.263901746521e-19 0.000000000000e+00 4.686849327603e-19 -1.129364439597e-19 0.000000000000e+00 4.992652975488e-19 -8.004523503284e-20 0.000000000000e+00 4.872357142934e-19 -4.408745250354e-20 0.000000000000e+00 4.815139012256e-19 -2.467810797195e-20 0.000000000000e+00 5.129014122455e-19 -1.154670220179e-20 0.000000000000e+00 4.856815697470e-19 -4.432125327488e-20 0.000000000000e+00 5.539707975307e-19 -6.438931450248e-20 0.000000000000e+00 6.063421703099e-19 -3.365955005089e-20 0.000000000000e+00 6.291401708343e-19 -1.024454832077e-21 0.000000000000e+00 6.296620995272e-19 5.089968908578e-20 0.000000000000e+00 6.232456750392e-19 7.972121238708e-20 0.000000000000e+00 6.670275373229e-19 9.977278144409e-20 0.000000000000e+00 6.263073980032e-19 4.923592011134e-20 0.000000000000e+00 7.175614882726e-19 2.703939874967e-20 0.000000000000e+00 7.467972560941e-19 2.831414652367e-20 0.000000000000e+00 7.951949858883e-19 1.064036041498e-19 0.000000000000e+00 8.166677919993e-19 1.843329907085e-19 0.000000000000e+00 8.071391979077e-19 2.299551852047e-19 0.000000000000e+00 8.652440252869e-19 2.597419855495e-19 0.000000000000e+00 8.121993838965e-19 1.780533542236e-19 0.000000000000e+00 9.318394101380e-19 1.168538195391e-19 0.000000000000e+00 9.736926585902e-19 1.538816529016e-19 0.000000000000e+00 1.044789435885e-18 2.654502168298e-19 0.000000000000e+00 1.066863721159e-18 3.882431580375e-19 0.000000000000e+00 1.063403275718e-18 4.521794229125e-19 0.000000000000e+00 1.148591157592e-18 5.072233638141e-19 0.000000000000e+00 1.072887243936e-18 5.151231681507e-19 0.000000000000e+00 1.237260827717e-18 5.635228138345e-19 0.000000000000e+00 1.327828067588e-18 6.208138139563e-19 0.000000000000e+00 1.247266724628e-18 4.901628320416e-19 0.000000000000e+00 1.417502789991e-18 3.976589899442e-19 0.000000000000e+00 1.498685014667e-18 4.446541424841e-19 0.000000000000e+00 1.614379531626e-18 5.129433702677e-19 0.000000000000e+00 1.719911961118e-18 6.438989657909e-19 0.000000000000e+00 1.653083745623e-18 7.881608325988e-19 0.000000000000e+00 1.631487733296e-18 8.949806215242e-19 0.000000000000e+00 1.744028365162e-18 9.202648167654e-19 0.000000000000e+00 1.634436921449e-18 8.190885030975e-19 0.000000000000e+00 1.921249349834e-18 7.403839845210e-19 0.000000000000e+00 2.144565951312e-18 8.267583325505e-19 0.000000000000e+00 2.307071069178e-18 1.040031202137e-18 0.000000000000e+00 2.238711022073e-18 1.328706275672e-18 0.000000000000e+00 2.195524818186e-18 1.482250324140e-18 0.000000000000e+00 2.437958755763e-18 1.607356281778e-18 0.000000000000e+00 2.222222731992e-18 1.297876805525e-18 0.000000000000e+00 2.635692120142e-18 1.154133739571e-18 0.000000000000e+00 2.917299813513e-18 1.276928621034e-18 0.000000000000e+00 3.147911775159e-18 1.580865743260e-18 0.000000000000e+00 3.088220789020e-18 1.906748123777e-18 0.000000000000e+00 3.083485595804e-18 2.064509317279e-18 0.000000000000e+00 3.319690343536e-18 2.168543869630e-18 0.000000000000e+00 3.113295679213e-18 1.905517031749e-18 0.000000000000e+00 3.597941395128e-18 1.701960961024e-18 0.000000000000e+00 3.966378426412e-18 1.871981658041e-18 0.000000000000e+00 4.289221396903e-18 2.297180859993e-18 0.000000000000e+00 4.194799839752e-18 2.722661398972e-18 0.000000000000e+00 4.119236594609e-18 3.009082865901e-18 0.000000000000e+00 4.450275203756e-18 3.114044860316e-18 0.000000000000e+00 4.124680951160e-18 2.788895896326e-18 0.000000000000e+00 4.928639342931e-18 2.485944423825e-18 0.000000000000e+00 5.482478445629e-18 2.737669274211e-18 0.000000000000e+00 5.961882561678e-18 3.387193040301e-18 0.000000000000e+00 5.818345380249e-18 3.016549938669e-18 0.000000000000e+00 6.496957454753e-18 4.040613809290e-18 0.000000000000e+00 5.689252429875e-18 4.455255111679e-18 0.000000000000e+00 6.207190017449e-18 4.648430816208e-18 0.000000000000e+00 5.695612586957e-18 4.128052387387e-18 0.000000000000e+00 6.910848848444e-18 3.331530994425e-18 0.000000000000e+00 7.095996746405e-18 2.555502578616e-18 0.000000000000e+00 7.178466330515e-18 1.952677100311e-18 0.000000000000e+00 7.574117383532e-18 2.005858481387e-18 0.000000000000e+00 8.244475611718e-18 1.421388283044e-18 0.000000000000e+00 7.945090328576e-18 5.638374326130e-18 0.000000000000e+00 1.014888281740e-17 5.274103023112e-18 0.000000000000e+00 1.080839501810e-17 5.950417835265e-18 0.000000000000e+00 1.064926303419e-17 5.885118540997e-18 0.000000000000e+00 1.195472893111e-17 5.115415357674e-18 0.000000000000e+00 1.207966100386e-17 5.401868838817e-18 0.000000000000e+00 1.272506754807e-17 3.589581077298e-18 0.000000000000e+00 1.269650116834e-17 2.638952573761e-18 0.000000000000e+00 1.324320401181e-17 3.763770412964e-18 0.000000000000e+00 1.340238935275e-17 4.772333583484e-18 0.000000000000e+00 1.585562883217e-17 3.859866155835e-18 0.000000000000e+00 1.666315554758e-17 5.017674993724e-18 0.000000000000e+00 1.677656521982e-17 1.314457060168e-17 0.000000000000e+00 1.617461360487e-17 1.393717364408e-17 0.000000000000e+00 1.486578097683e-17 1.222912202744e-17 0.000000000000e+00 1.516301490483e-17 6.186919442068e-18 0.000000000000e+00 1.992629913730e-17 5.199549486861e-18 0.000000000000e+00 2.099074961734e-17 6.565886239211e-18 0.000000000000e+00 2.121663686315e-17 8.058097834388e-18 0.000000000000e+00 2.565651351082e-17 6.752210319974e-18 0.000000000000e+00 2.706945946557e-17 8.687811593215e-18 0.000000000000e+00 2.747942611071e-17 1.063783808301e-17 0.000000000000e+00 2.765746782340e-17 9.312234275664e-18 0.000000000000e+00 2.940604924030e-17 7.521333172917e-18 0.000000000000e+00 3.115086656180e-17 9.990000398830e-18 0.000000000000e+00 3.164084021895e-17 1.279262748236e-17 0.000000000000e+00 3.985079699002e-17 9.829598711804e-18 0.000000000000e+00 4.262458256562e-17 1.397761322247e-17 0.000000000000e+00 4.350564049673e-17 1.934415777214e-17 0.000000000000e+00 5.771454574036e-17 1.427796436474e-17 0.000000000000e+00 6.277697233600e-17 2.209034864791e-17 0.000000000000e+00 6.410450417510e-17 3.437221166678e-17 0.000000000000e+00 9.172022085598e-17 2.406507264823e-17 0.000000000000e+00 1.027382015309e-16 4.163668878997e-17 0.000000000000e+00 1.050897003248e-16 7.578003763532e-17 0.000000000000e+00 1.795693230330e-16 4.483084892854e-17 0.000000000000e+00 2.304578521580e-16 1.138976872123e-16 0.000000000000e+00 2.434427226641e-16 6.719274242641e-16 0.000000000000e+00 4.180186454808e-16 2.693743113196e-16 0.000000000000e+00 5.123754272063e-16 1.009654618489e-15 0.000000000000e+00 -2.441253467017e-16 6.645151930570e-16 0.000000000000e+00 -4.943973435729e-16 7.328439701814e-16 0.000000000000e+00 -9.268627774145e-16 4.060644496794e-16 0.000000000000e+00 -1.972147702569e-16 3.389234343194e-16 0.000000000000e+00 -2.881488639105e-16 1.467752270401e-16 0.000000000000e+00 -4.233907796637e-17 1.712646000707e-16 0.000000000000e+00 -5.793665307768e-17 1.505368947983e-16 0.000000000000e+00 -5.930427156272e-17 1.411572564393e-16 0.000000000000e+00 -2.278142904591e-17 1.269355666591e-16 0.000000000000e+00 -3.027438346180e-17 9.317083943946e-17 0.000000000000e+00 2.893764831242e-17 1.062161075727e-16 0.000000000000e+00 2.257789577319e-17 9.239651204553e-17 0.000000000000e+00 1.916229099152e-17 5.478548700921e-17 0.000000000000e+00 3.526607833919e-17 6.263980758376e-17 0.000000000000e+00 3.524179798357e-17 5.781153566204e-17 0.000000000000e+00 3.020845542778e-17 3.374869508358e-17 0.000000000000e+00 3.020023796125e-17 3.772179091660e-17 0.000000000000e+00 3.164258887409e-17 3.666258417070e-17 0.000000000000e+00 2.832387472154e-17 2.267107580944e-17 0.000000000000e+00 2.422612524242e-17 2.472439082339e-17 0.000000000000e+00 2.572273539651e-17 2.514217281714e-17 0.000000000000e+00 2.358663317864e-17 2.074772977115e-17 0.000000000000e+00 2.287644092576e-17 2.124131773598e-17 0.000000000000e+00 2.114592891303e-17 1.892076494793e-17 0.000000000000e+00 2.148326869550e-17 2.033680599804e-17 0.000000000000e+00 2.494240543456e-17 1.629557809792e-17 0.000000000000e+00 2.425479348555e-17 1.539720299964e-17 0.000000000000e+00 2.681070739830e-17 1.786955787490e-17 0.000000000000e+00 2.596596774917e-17 1.964762147206e-17 0.000000000000e+00 2.777731933747e-17 1.853655946131e-17 0.000000000000e+00 3.086527455404e-17 1.545024764103e-17 0.000000000000e+00 3.163458386553e-17 1.693954885316e-17 0.000000000000e+00 3.402941874810e-17 2.160031969349e-17 0.000000000000e+00 2.974532423347e-17 2.395585179329e-17 0.000000000000e+00 3.188573343020e-17 2.273689024150e-17 0.000000000000e+00 3.582394250164e-17 2.677563655501e-17 0.000000000000e+00 3.427324675916e-17 2.456991157184e-17 0.000000000000e+00 2.839986094235e-17 2.720529640404e-17 0.000000000000e+00 2.717298023830e-17 3.021890491558e-17 0.000000000000e+00 2.873457051464e-17 2.985901432112e-17 0.000000000000e+00 2.612914031488e-17 3.049760513629e-17 0.000000000000e+00 3.224770941112e-17 3.004832736527e-17 0.000000000000e+00 3.682512300050e-17 2.859022545939e-17 0.000000000000e+00 4.190390245640e-17 2.328313421458e-17 0.000000000000e+00 4.339032723995e-17 2.617008673648e-17 0.000000000000e+00 4.722907979158e-17 3.378808905836e-17 0.000000000000e+00 3.953921817204e-17 3.847361367662e-17 0.000000000000e+00 4.250655838405e-17 3.708565782290e-17 0.000000000000e+00 4.943400635966e-17 4.422339455535e-17 0.000000000000e+00 4.573778787744e-17 3.854611422867e-17 0.000000000000e+00 3.646655507813e-17 4.242316742117e-17 0.000000000000e+00 3.310805647440e-17 4.806001864684e-17 0.000000000000e+00 3.441687513259e-17 4.571362893330e-17 0.000000000000e+00 3.013464694959e-17 5.021266018351e-17 0.000000000000e+00 4.077827591876e-17 5.111872160342e-17 0.000000000000e+00 4.899931445834e-17 4.985972288220e-17 0.000000000000e+00 5.863100304850e-17 3.964997886214e-17 0.000000000000e+00 6.266223863349e-17 4.636143081977e-17 0.000000000000e+00 6.922398048725e-17 5.929609954668e-17 0.000000000000e+00 5.217851115352e-17 6.982655904721e-17 0.000000000000e+00 5.506991074071e-17 7.026987441350e-17 0.000000000000e+00 6.918072055366e-17 8.313643823688e-17 0.000000000000e+00 5.699407653689e-17 6.686147535220e-17 0.000000000000e+00 4.375789212645e-17 7.160791040709e-17 0.000000000000e+00 3.457111670286e-17 8.193889710431e-17 0.000000000000e+00 3.239715952077e-17 7.368856808171e-17 0.000000000000e+00 2.676518241060e-17 9.071290260181e-17 0.000000000000e+00 4.215307490085e-17 9.905105641034e-17 0.000000000000e+00 5.655518398271e-17 1.058136481637e-16 0.000000000000e+00 7.883483267506e-17 8.391291679194e-17 0.000000000000e+00 9.600241877100e-17 1.059325508929e-16 0.000000000000e+00 1.075958335908e-16 1.189663918922e-16 0.000000000000e+00 5.470306762921e-17 1.406878523994e-16 0.000000000000e+00 4.604808903726e-17 1.668081027068e-16 0.000000000000e+00 7.374325529478e-17 1.666948849258e-16 0.000000000000e+00 3.179462582921e-17 1.217547222041e-16 0.000000000000e+00 3.130340167748e-17 1.205455822249e-16 0.000000000000e+00 1.306714815049e-17 1.327452016994e-16 0.000000000000e+00 -3.465072222752e-18 1.135693097604e-16 0.000000000000e+00 1.861302007455e-19 1.551059850802e-16 0.000000000000e+00 -4.344784004691e-18 1.928517783670e-16 0.000000000000e+00 3.914372791769e-18 2.520985062920e-16 0.000000000000e+00 2.340821932497e-17 2.661758023540e-16 0.000000000000e+00 1.191644985132e-16 3.347315427717e-16 0.000000000000e+00 5.535363816307e-17 2.050202957778e-16 0.000000000000e+00 -3.924648844986e-17 2.133690316351e-16 0.000000000000e+00 -7.053708662473e-17 2.813235539387e-16 0.000000000000e+00 -1.075579079043e-16 2.170068263382e-16 0.000000000000e+00 -9.953648710507e-17 3.905973358646e-16 0.000000000000e+00 -6.098545297088e-17 5.640044854147e-16 0.000000000000e+00 1.721837215882e-16 3.112159902230e-16 0.000000000000e+00 4.569667903221e-16 1.633195672184e-16 0.000000000000e+00 2.917820856965e-16 1.222656364553e-16 0.000000000000e+00 4.068482313596e-16 2.058318841151e-16 0.000000000000e+00 2.056452792507e-16 1.919745400466e-16 0.000000000000e+00 1.216153602096e-16 1.394582286594e-16 0.000000000000e+00 1.168220447047e-16 9.687434115525e-17 0.000000000000e+00 1.422154132645e-16 6.404127731609e-17 0.000000000000e+00 1.449969779060e-16 5.164883332327e-17 0.000000000000e+00 1.223940137910e-16 3.573384135962e-17 0.000000000000e+00 1.414006478444e-16 6.018462881912e-17 0.000000000000e+00 1.040257326774e-16 6.748212326784e-17 0.000000000000e+00 8.603607784607e-17 5.519212087772e-17 0.000000000000e+00 7.690734710195e-17 4.090640383462e-17 0.000000000000e+00 8.035893236714e-17 2.907569093319e-17 0.000000000000e+00 8.074590756830e-17 2.517549049420e-17 0.000000000000e+00 7.152662316609e-17 1.788065070286e-17 0.000000000000e+00 7.908039100585e-17 3.001006067886e-17 0.000000000000e+00 6.421121724998e-17 3.424089615388e-17 0.000000000000e+00 5.684067897770e-17 2.971501089633e-17 0.000000000000e+00 5.167490332193e-17 2.293782502723e-17 0.000000000000e+00 5.261834764193e-17 1.717362126025e-17 0.000000000000e+00 5.235799932658e-17 1.540020263443e-17 0.000000000000e+00 4.755295497792e-17 1.158886938356e-17 0.000000000000e+00 5.127626776812e-17 1.826078223530e-17 0.000000000000e+00 4.388386902671e-17 2.082501402280e-17 0.000000000000e+00 3.991425983259e-17 1.868443020309e-17 0.000000000000e+00 3.677681161207e-17 1.496213565891e-17 0.000000000000e+00 3.715909139525e-17 1.179292254771e-17 0.000000000000e+00 3.681274708166e-17 1.082319261817e-17 0.000000000000e+00 3.405418610782e-17 8.691985858604e-18 0.000000000000e+00 3.612045504269e-17 1.250811037607e-17 0.000000000000e+00 3.192894194702e-17 1.412273462241e-17 0.000000000000e+00 2.943773458052e-17 1.291452402559e-17 0.000000000000e+00 2.738549931867e-17 1.190348217885e-17 0.000000000000e+00 2.554742653350e-17 1.298261146682e-17 0.000000000000e+00 2.340622668271e-17 1.101273228414e-17 0.000000000000e+00 2.393416434643e-17 1.021205098368e-17 0.000000000000e+00 2.244737867538e-17 9.123623992006e-18 0.000000000000e+00 2.418720468995e-17 7.488190506895e-18 0.000000000000e+00 2.406084361913e-17 6.981977882485e-18 0.000000000000e+00 2.257531135304e-17 5.790650029667e-18 0.000000000000e+00 2.376353673753e-17 7.924033949773e-18 0.000000000000e+00 2.127715633833e-17 9.500062636410e-18 0.000000000000e+00 2.108147576412e-17 8.859592101847e-18 0.000000000000e+00 1.982752752762e-17 1.114830762769e-17 0.000000000000e+00 2.068453347116e-17 1.187543772782e-17 0.000000000000e+00 1.897033240918e-17 1.278946292587e-17 0.000000000000e+00 2.009764405860e-17 1.450101895684e-17 0.000000000000e+00 1.944656323758e-17 1.379670381236e-17 0.000000000000e+00 2.132721686697e-17 1.492856924112e-17 0.000000000000e+00 2.270996216491e-17 1.692942266042e-17 0.000000000000e+00 2.196376420519e-17 1.745294200222e-17 0.000000000000e+00 2.032388365478e-17 1.633838181012e-17 0.000000000000e+00 1.912560910569e-17 1.839244658939e-17 0.000000000000e+00 1.876649053884e-17 1.522890061976e-17 0.000000000000e+00 1.804740046888e-17 1.612462815132e-17 0.000000000000e+00 1.678075714153e-17 1.411506910291e-17 0.000000000000e+00 1.706231923890e-17 1.250825415385e-17 0.000000000000e+00 1.738598778805e-17 1.105003175326e-17 0.000000000000e+00 1.790639726096e-17 1.030404625150e-17 0.000000000000e+00 1.692770044125e-17 9.672423281396e-18 0.000000000000e+00 1.835909958269e-17 8.281801516811e-18 0.000000000000e+00 1.867164367771e-17 7.752138966074e-18 0.000000000000e+00 1.761420547458e-17 6.960854322339e-18 0.000000000000e+00 1.882687768860e-17 5.775604707499e-18 0.000000000000e+00 1.883978869349e-17 5.334320788582e-18 0.000000000000e+00 1.778021081312e-17 4.431927809492e-18 0.000000000000e+00 1.865815858764e-17 6.110896356404e-18 0.000000000000e+00 1.676704535688e-17 7.267113930235e-18 0.000000000000e+00 1.663235768016e-17 6.829986038307e-18 0.000000000000e+00 1.573532426846e-17 8.452751596148e-18 0.000000000000e+00 1.637873817041e-17 9.021455965315e-18 0.000000000000e+00 1.517645311348e-17 9.631687620034e-18 0.000000000000e+00 1.601593467058e-17 1.087156124413e-17 0.000000000000e+00 1.555849715563e-17 1.141858325961e-17 0.000000000000e+00 1.433150391676e-17 1.202696585096e-17 0.000000000000e+00 1.324587807176e-17 1.067785779014e-17 0.000000000000e+00 1.362342324380e-17 9.209123284866e-18 0.000000000000e+00 1.237814867636e-17 9.982568250659e-18 0.000000000000e+00 1.298503727109e-17 1.029527513310e-17 0.000000000000e+00 1.217292548972e-17 9.530805982649e-18 0.000000000000e+00 1.401210780993e-17 8.454532750572e-18 0.000000000000e+00 1.439436236979e-17 7.940879246841e-18 0.000000000000e+00 1.367749428027e-17 7.442088099197e-18 0.000000000000e+00 1.469628938745e-17 6.428007812550e-18 0.000000000000e+00 1.489515295058e-17 6.061060897385e-18 0.000000000000e+00 1.411046032445e-17 5.443570747351e-18 0.000000000000e+00 1.500008390091e-17 4.444735047097e-18 0.000000000000e+00 1.505663652400e-17 4.018338707586e-18 0.000000000000e+00 1.420201224391e-17 3.173202276230e-18 0.000000000000e+00 1.485100321588e-17 4.783125283817e-18 0.000000000000e+00 1.348652076558e-17 5.720994280030e-18 0.000000000000e+00 1.340414237347e-17 6.602320354432e-18 0.000000000000e+00 1.322952133099e-17 7.058610208333e-18 0.000000000000e+00 1.235730087501e-17 7.482542423531e-18 0.000000000000e+00 1.299421686175e-17 8.337036706507e-18 0.000000000000e+00 1.271409928449e-17 8.591004492094e-18 0.000000000000e+00 1.187233695722e-17 8.889372111298e-18 0.000000000000e+00 1.117252468248e-17 8.116406388581e-18 0.000000000000e+00 1.131772757314e-17 7.216861316313e-18 0.000000000000e+00 1.030287215447e-17 7.663868988554e-18 0.000000000000e+00 1.078823964538e-17 7.884175865911e-18 0.000000000000e+00 1.020425421302e-17 7.414670350651e-18 0.000000000000e+00 1.152012143090e-17 6.662421704580e-18 0.000000000000e+00 1.175755242002e-17 6.290540720026e-18 0.000000000000e+00 1.118838821033e-17 6.604214043667e-18 0.000000000000e+00 1.046334000421e-17 6.810897806038e-18 0.000000000000e+00 9.859723650152e-18 7.024497026578e-18 0.000000000000e+00 9.347011364298e-18 6.450417762001e-18 0.000000000000e+00 9.411412126307e-18 5.507985285173e-18 0.000000000000e+00 8.218115302346e-18 5.690036341548e-18 0.000000000000e+00 7.811366376700e-18 5.220877937973e-18 0.000000000000e+00 7.833820563974e-18 4.499502635250e-18 0.000000000000e+00 6.859109998913e-18 4.661695566028e-18 0.000000000000e+00 6.541710608872e-18 4.274273912112e-18 0.000000000000e+00 6.564761618696e-18 3.690893451373e-18 0.000000000000e+00 5.772648485921e-18 3.828081535175e-18 0.000000000000e+00 5.511837807717e-18 3.512277423094e-18 0.000000000000e+00 5.533979613877e-18 3.032440630098e-18 0.000000000000e+00 4.889634389353e-18 3.143743379042e-18 0.000000000000e+00 4.675575328292e-18 2.889036356161e-18 0.000000000000e+00 4.694689171932e-18 2.492746959130e-18 0.000000000000e+00 4.172644063753e-18 2.581644803286e-18 0.000000000000e+00 4.003302456113e-18 2.380510947357e-18 0.000000000000e+00 4.009707239068e-18 2.068083267659e-18 0.000000000000e+00 3.591390122892e-18 2.139182761312e-18 0.000000000000e+00 3.462050372036e-18 1.973457013567e-18 0.000000000000e+00 3.456140742249e-18 1.730643756067e-18 0.000000000000e+00 3.092748374911e-18 1.810055691749e-18 0.000000000000e+00 2.987713814946e-18 1.647841418162e-18 0.000000000000e+00 2.977419596088e-18 1.166634804880e-18 0.000000000000e+00 2.219745996020e-18 1.250787172467e-18 0.000000000000e+00 2.116512769135e-18 1.100495380039e-18 0.000000000000e+00 2.131822354083e-18 8.987767311434e-19 0.000000000000e+00 1.906916683462e-18 9.430933278054e-19 0.000000000000e+00 1.829618850024e-18 8.506118319929e-19 0.000000000000e+00 1.834419041794e-18 7.068854756653e-19 0.000000000000e+00 1.646959329567e-18 7.363583426923e-19 0.000000000000e+00 1.589232851984e-18 6.660236977041e-19 0.000000000000e+00 1.586646491584e-18 5.562304674337e-19 0.000000000000e+00 1.425389928045e-18 5.887378938496e-19 0.000000000000e+00 1.380265020998e-18 5.199729154507e-19 0.000000000000e+00 1.373278549484e-18 3.215429993967e-19 0.000000000000e+00 1.069539333306e-18 3.562378697097e-19 0.000000000000e+00 1.035151799442e-18 2.963031874970e-19 0.000000000000e+00 1.033861917676e-18 2.232904080302e-19 0.000000000000e+00 9.317617999235e-19 2.492102794349e-19 0.000000000000e+00 8.995256212074e-19 2.024869900197e-19 0.000000000000e+00 9.010339757272e-19 1.418714721998e-19 0.000000000000e+00 8.161846684137e-19 1.616007648408e-19 0.000000000000e+00 7.887564424891e-19 1.249563259383e-19 0.000000000000e+00 7.897486890821e-19 7.627143835028e-20 0.000000000000e+00 7.173674627362e-19 9.275507181883e-20 0.000000000000e+00 6.930001836736e-19 6.139356022080e-20 0.000000000000e+00 6.942997667162e-19 2.157175913453e-20 0.000000000000e+00 6.283427258798e-19 3.572436980903e-20 0.000000000000e+00 6.071648385841e-19 9.064873059591e-21 0.000000000000e+00 6.077643774915e-19 -2.554540211956e-20 0.000000000000e+00 5.521003913600e-19 -1.517822965980e-20 0.000000000000e+00 5.328546103556e-19 -3.652336696784e-20 0.000000000000e+00 5.330878290503e-19 -6.403618802627e-20 0.000000000000e+00 4.850665087967e-19 -5.382229574025e-20 0.000000000000e+00 4.721696313936e-19 -7.137423381209e-20 0.000000000000e+00 4.721560496061e-19 -9.469610328476e-20 0.000000000000e+00 4.318782885093e-19 -8.780276402831e-20 0.000000000000e+00 4.199294198770e-19 -1.010601408780e-19 0.000000000000e+00 4.154734294085e-19 -1.664234635731e-19 0.000000000000e+00 3.728324372787e-19 -1.608820942541e-19 0.000000000000e+00 3.748192587712e-19 -1.597528656324e-19 0.000000000000e+00 3.676635969896e-19 -1.462409272790e-19 0.000000000000e+00 3.806128612875e-19 -1.409711937110e-19 0.000000000000e+00 3.872756982067e-19 -1.458451151848e-19 0.000000000000e+00 3.733485452055e-19 -1.180179727574e-19 0.000000000000e+00 3.775705408771e-19 -1.100054942071e-19 0.000000000000e+00 3.683062095661e-19 -1.247099135071e-19 0.000000000000e+00 3.660299019733e-19 -1.521199010313e-19 0.000000000000e+00 2.877658213644e-19 -1.416797749698e-19 0.000000000000e+00 2.818561915774e-19 -1.543123895923e-19 0.000000000000e+00 2.791006409097e-19 -1.716039453944e-19 0.000000000000e+00 2.491954849878e-19 -1.643958967179e-19 0.000000000000e+00 2.452063199598e-19 -1.706959058841e-19 0.000000000000e+00 2.412462587624e-19 -1.746501463155e-19 0.000000000000e+00 2.199034497607e-19 -1.702178269625e-19 0.000000000000e+00 2.158137795050e-19 -1.776614226401e-19 0.000000000000e+00 2.147831158557e-19 -2.345762291978e-19 0.000000000000e+00 1.851243723650e-19 -2.414314076304e-19 0.000000000000e+00 1.866913225967e-19 -2.357080423584e-19 0.000000000000e+00 1.932715046375e-19 -1.855000543098e-19 0.000000000000e+00 1.913972179561e-19 -1.822132617235e-19 0.000000000000e+00 1.842256460804e-19 -1.880185057720e-19 0.000000000000e+00 1.779725910941e-19 -1.834201005598e-19 0.000000000000e+00 1.540123776067e-19 -1.801527105272e-19 0.000000000000e+00 1.468283880968e-19 -1.872540451586e-19 0.000000000000e+00 1.463852337717e-19 -1.970096491277e-19 0.000000000000e+00 1.522622672686e-19 -1.901799502472e-19 0.000000000000e+00 1.468683573573e-19 -1.937383785844e-19 0.000000000000e+00 1.341849080442e-19 -1.848768442869e-19 0.000000000000e+00 1.393591810483e-19 -2.033775672317e-19 0.000000000000e+00 8.796220451283e-20 -1.997337676585e-19 0.000000000000e+00 9.735110021817e-20 -1.945463009179e-19 0.000000000000e+00 9.075578418560e-20 -1.952517777681e-19 0.000000000000e+00 7.127018761821e-20 -1.978594809771e-19 0.000000000000e+00 8.560091373511e-20 -1.951004378498e-19 0.000000000000e+00 8.129121852107e-20 -1.900945790112e-19 0.000000000000e+00 4.548807434427e-20 -1.923957218726e-19 0.000000000000e+00 5.171629406201e-20 -1.888396218419e-19 0.000000000000e+00 5.193593096919e-20 -1.821298307429e-19 0.000000000000e+00 3.281820681877e-20 -1.840759068727e-19 0.000000000000e+00 2.666371680486e-20 -1.789536327124e-19 0.000000000000e+00 2.880187821575e-20 -2.437309982876e-19 0.000000000000e+00 3.856524320630e-20 -2.527236938477e-19 0.000000000000e+00 4.236426320858e-20 -2.429102702687e-19 0.000000000000e+00 4.234098014422e-20 -2.397224307060e-19 0.000000000000e+00 6.457630661316e-20 -2.399471122772e-19 0.000000000000e+00 6.890462827869e-20 -2.413677672545e-19 0.000000000000e+00 7.363535890666e-20 -2.340336019794e-19 0.000000000000e+00 1.010957930703e-19 -2.369936555624e-19 0.000000000000e+00 1.089049328584e-19 -2.266606315970e-19 0.000000000000e+00 1.087675627787e-19 -2.163578756154e-19 0.000000000000e+00 1.461562836388e-19 -2.076888146500e-19 0.000000000000e+00 1.383661583532e-19 -2.180847028891e-19 0.000000000000e+00 1.394391195693e-19 -2.144370228052e-19 0.000000000000e+00 1.191925548483e-19 -2.051160360376e-19 0.000000000000e+00 1.212337034910e-19 -2.068855489294e-19 0.000000000000e+00 1.152286131401e-19 -2.231293668350e-19 0.000000000000e+00 1.153392076958e-19 -2.197572030127e-19 0.000000000000e+00 1.295224744050e-19 -2.240141232808e-19 0.000000000000e+00 1.364530665645e-19 -2.320234974225e-19 0.000000000000e+00 1.374173734803e-19 -2.386188134551e-19 0.000000000000e+00 1.401484769303e-19 -2.331061599155e-19 0.000000000000e+00 1.464317999004e-19 -2.265713798503e-19 0.000000000000e+00 1.239325987020e-19 -2.226054978867e-19 0.000000000000e+00 1.160726242233e-19 -2.367235720158e-19 0.000000000000e+00 1.171471376438e-19 -2.247203762333e-19 0.000000000000e+00 1.120136100023e-19 -2.248329110444e-19 0.000000000000e+00 1.042739313561e-19 -2.137268893421e-19 0.000000000000e+00 1.010919125595e-19 -2.219264085094e-19 0.000000000000e+00 9.718229800152e-20 -2.131370517115e-19 0.000000000000e+00 8.617134881206e-20 -2.130128753682e-19 0.000000000000e+00 9.443489640641e-20 -2.101684610049e-19 0.000000000000e+00 8.583956514485e-20 -2.242003877958e-19 0.000000000000e+00 8.301261307982e-20 -2.220855094492e-19 0.000000000000e+00 9.519353625365e-20 -2.317673837145e-19 0.000000000000e+00 1.000616369614e-19 -2.382478366295e-19 0.000000000000e+00 1.007184134020e-19 -2.408244957527e-19 0.000000000000e+00 8.053975761868e-20 -2.429028972983e-19 0.000000000000e+00 9.096882422455e-20 -2.344526971380e-19 0.000000000000e+00 7.420191347289e-20 -2.219264085094e-19 0.000000000000e+00 7.287477880406e-20 -2.137385308743e-19 0.000000000000e+00 6.983245839365e-20 -2.210144884884e-19 0.000000000000e+00 6.744982480692e-20 -2.144253812730e-19 0.000000000000e+00 5.701901197123e-20 -2.024656472107e-19 0.000000000000e+00 6.263605124938e-20 -2.013655224194e-19 0.000000000000e+00 5.359834176488e-20 -2.201239112765e-19 0.000000000000e+00 4.715863421249e-20 -2.204809182634e-19 0.000000000000e+00 5.922702257521e-20 -2.317441006502e-19 0.000000000000e+00 6.120996355700e-20 -2.380848551790e-19 0.000000000000e+00 5.158629695264e-20 -2.393169173350e-19 0.000000000000e+00 4.707132272112e-20 -2.467446029186e-19 0.000000000000e+00 5.175432306714e-20 -2.283370122313e-19 0.000000000000e+00 4.069952410646e-20 -2.196892940750e-19 0.000000000000e+00 3.588963105964e-20 -2.082282056411e-19 0.000000000000e+00 3.663468911933e-20 -2.186008108159e-19 0.000000000000e+00 3.552874356198e-20 -2.159872868409e-19 0.000000000000e+00 2.184218222586e-20 -2.028090724101e-19 0.000000000000e+00 2.400556695648e-20 -2.117216354236e-19 0.000000000000e+00 1.598649153796e-20 -2.335291355848e-19 0.000000000000e+00 2.128532893645e-20 -2.202335357045e-19 0.000000000000e+00 2.534628341285e-20 -2.109765773639e-19 0.000000000000e+00 2.881740025866e-20 -1.991332586234e-19 0.000000000000e+00 2.627566573210e-20 -1.977440357829e-19 0.000000000000e+00 2.881546000329e-20 -2.201355528086e-19 0.000000000000e+00 3.359430896429e-20 -2.310766528050e-19 0.000000000000e+00 3.625051855731e-20 -2.424038636188e-19 0.000000000000e+00 3.446548362263e-20 -2.451046990852e-19 0.000000000000e+00 2.543359490422e-20 -2.469634637237e-19 0.000000000000e+00 3.004985046573e-20 -2.456208070119e-19 0.000000000000e+00 1.246492805270e-20 -2.478808164597e-19 0.000000000000e+00 6.990303518251e-21 -2.413522452116e-19 0.000000000000e+00 8.320542595660e-21 -2.366180221240e-19 0.000000000000e+00 1.004348935870e-20 -2.237580095728e-19 0.000000000000e+00 8.766801329330e-21 -2.093661654120e-19 0.000000000000e+00 7.290266997491e-21 -2.061637739340e-19 0.000000000000e+00 4.374063185727e-21 -1.966953277588e-19 0.000000000000e+00 6.454016935701e-21 -1.899742831786e-19 0.000000000000e+00 1.652006176300e-20 -1.879253735145e-19 0.000000000000e+00 8.776502606149e-21 -1.862334708373e-19 0.000000000000e+00 5.142404309784e-21 -1.867456982533e-19 0.000000000000e+00 8.644565241411e-21 -1.791864633560e-19 0.000000000000e+00 7.443547171230e-21 -1.821065476785e-19 0.000000000000e+00 7.393100531772e-21 -1.795869320631e-19 0.000000000000e+00 6.906484486535e-21 -1.834433836242e-19 0.000000000000e+00 1.185956837920e-20 -1.817902860542e-19 0.000000000000e+00 2.379601937719e-20 -1.859222538769e-19 0.000000000000e+00 2.112312358804e-20 -1.839827746153e-19 0.000000000000e+00 2.637073824493e-20 -1.911083624388e-19 0.000000000000e+00 2.701878353643e-20 -1.944717951119e-19 0.000000000000e+00 2.965947108654e-20 -1.854418466489e-19 0.000000000000e+00 2.925783822623e-20 -1.813634298742e-19 0.000000000000e+00 2.869322391537e-20 -1.853797584772e-19 0.000000000000e+00 3.292686111915e-20 -1.838430762291e-19 0.000000000000e+00 3.362612915225e-20 -1.920784901207e-19 0.000000000000e+00 3.371848530757e-20 -1.979419418300e-19 0.000000000000e+00 3.676468622871e-20 -2.023919175069e-19 0.000000000000e+00 4.364095123795e-20 -1.977915720393e-19 0.000000000000e+00 4.962275852449e-20 -1.974403858185e-19 0.000000000000e+00 5.895732707965e-20 -1.978206758698e-19 0.000000000000e+00 6.413586864558e-20 -1.917104236782e-19 0.000000000000e+00 6.197791662998e-20 -1.976091880351e-19 0.000000000000e+00 6.713938394872e-20 -2.058164682239e-19 0.000000000000e+00 6.704043092517e-20 -2.062918307881e-19 0.000000000000e+00 7.621977905122e-20 -2.035909953217e-19 0.000000000000e+00 8.728311513551e-20 -2.006301656365e-19 0.000000000000e+00 9.757811009573e-20 -2.041226252913e-19 0.000000000000e+00 9.634798819510e-20 -1.954939216375e-19 0.000000000000e+00 9.884432074614e-20 -2.118758857250e-19 0.000000000000e+00 9.432042133994e-20 -2.107311350604e-19 0.000000000000e+00 9.819123079069e-20 -2.069398760796e-19 0.000000000000e+00 1.034415618051e-19 -2.016662620008e-19 0.000000000000e+00 1.081078759550e-19 -1.962025028964e-19 0.000000000000e+00 1.086123423496e-19 -1.933309249580e-19 0.000000000000e+00 1.183116789131e-19 -1.962250098586e-19 0.000000000000e+00 1.121529203374e-19 -1.971959136426e-19 0.000000000000e+00 1.218604059735e-19 -1.997221261263e-19 0.000000000000e+00 1.308088637112e-19 -2.018641680479e-19 0.000000000000e+00 1.478869914232e-19 -2.033581646780e-19 0.000000000000e+00 1.555723429192e-19 -2.105720341206e-19 0.000000000000e+00 1.573418558110e-19 -2.018719290694e-19 0.000000000000e+00 1.607159598886e-19 -2.014916390181e-19 0.000000000000e+00 1.625941270807e-19 -1.911151533326e-19 0.000000000000e+00 1.586185438403e-19 -1.844639579455e-19 0.000000000000e+00 1.590434597650e-19 -1.880146252612e-19 0.000000000000e+00 1.671401453981e-19 -1.789070665836e-19 0.000000000000e+00 1.651242200751e-19 -1.897763771315e-19 0.000000000000e+00 1.732946354120e-19 -1.992875089248e-19 0.000000000000e+00 1.682014650820e-19 -1.974985934794e-19 0.000000000000e+00 1.809392415453e-19 -2.129275041322e-19 0.000000000000e+00 1.683954906184e-19 -2.154769996802e-19 0.000000000000e+00 1.739543222357e-19 -2.152247664829e-19 0.000000000000e+00 1.670450728852e-19 -2.273606359286e-19 0.000000000000e+00 1.690454761653e-19 -2.199201844633e-19 0.000000000000e+00 1.617384744653e-19 -2.189966229101e-19 0.000000000000e+00 1.535583578516e-19 -2.265752603610e-19 0.000000000000e+00 1.486398105044e-19 -2.327101377863e-19 0.000000000000e+00 1.499785867054e-19 -2.345018312972e-19 0.000000000000e+00 1.589037613788e-19 -2.420030498171e-19 0.000000000000e+00 1.532824535388e-19 -2.388595843117e-19 0.000000000000e+00 1.683469842343e-19 -2.437515769266e-19 0.000000000000e+00 1.694851380307e-19 -2.383799723992e-19 0.000000000000e+00 1.759857696015e-19 -2.264465592236e-19 0.000000000000e+00 1.793482321470e-19 -2.180342562497e-19 0.000000000000e+00 1.868744827031e-19 -2.198348132273e-19 0.000000000000e+00 1.995443502286e-19 -2.101606999834e-19 0.000000000000e+00 1.921985434213e-19 -1.967341328661e-19 0.000000000000e+00 1.933976212361e-19 -1.944446315368e-19 0.000000000000e+00 2.041524567176e-19 -1.872113595406e-19 0.000000000000e+00 1.961760669171e-19 -1.839711330831e-19 0.000000000000e+00 1.967309799511e-19 -1.802574843168e-19 0.000000000000e+00 2.029921840100e-19 -1.768022775650e-19 0.000000000000e+00 1.931011502165e-19 -1.827798162897e-19 0.000000000000e+00 2.111160332182e-19 -1.916584248344e-19 0.000000000000e+00 2.093290580281e-19 -1.900092077752e-19 0.000000000000e+00 2.184773620684e-19 -2.090275908510e-19 0.000000000000e+00 2.121230257520e-19 -2.172115879754e-19 0.000000000000e+00 2.202934410889e-19 -2.199279454847e-19 0.000000000000e+00 2.125634637196e-19 -2.283564147850e-19 0.000000000000e+00 2.070104528684e-19 -2.371186080078e-19 0.000000000000e+00 2.113100587546e-19 -2.393522299826e-19 0.000000000000e+00 2.141350705642e-19 -2.375347927834e-19 0.000000000000e+00 2.229263676175e-19 -2.309388946742e-19 0.000000000000e+00 2.419932570774e-19 -2.348436585938e-19 0.000000000000e+00 2.315352806666e-19 -2.388935536146e-19 0.000000000000e+00 2.367452543695e-19 -2.280304518839e-19 0.000000000000e+00 2.268806080489e-19 -2.160241516928e-19 0.000000000000e+00 2.266380761284e-19 -2.141110599041e-19 0.000000000000e+00 2.312500631281e-19 -2.052828979989e-19 0.000000000000e+00 2.248316983848e-19 -1.917476765811e-19 0.000000000000e+00 2.243602163314e-19 -1.933270444473e-19 0.000000000000e+00 2.307785810747e-19 -1.787945317725e-19 0.000000000000e+00 2.276373076408e-19 -1.677079126239e-19 0.000000000000e+00 2.254486995904e-19 -1.680455170572e-19 0.000000000000e+00 2.327964466531e-19 -1.650955528021e-19 0.000000000000e+00 2.274925645906e-19 -1.795512313644e-19 0.000000000000e+00 2.383513977596e-19 -1.894154896339e-19 0.000000000000e+00 2.384775143582e-19 -1.860200427473e-19 0.000000000000e+00 2.504838145493e-19 -1.992797479033e-19 0.000000000000e+00 2.419932570774e-19 -2.083717845380e-19 0.000000000000e+00 2.553577360231e-19 -2.120117036005e-19 0.000000000000e+00 2.448124481210e-19 -2.208631485701e-19 0.000000000000e+00 2.437918737996e-19 -2.279082157960e-19 0.000000000000e+00 2.524570542543e-19 -2.384232357144e-19 0.000000000000e+00 2.580492582638e-19 -2.260242278377e-19 0.000000000000e+00 2.614035717367e-19 -2.220699874063e-19 0.000000000000e+00 2.798942053535e-19 -2.230226527900e-19 0.000000000000e+00 2.737571776379e-19 -2.344814129174e-19 0.000000000000e+00 2.791413862724e-19 -2.163501145939e-19 0.000000000000e+00 2.676085083901e-19 -2.029080254336e-19 0.000000000000e+00 2.654373626380e-19 -1.996251133581e-19 0.000000000000e+00 2.709360463390e-19 -1.909017252425e-19 0.000000000000e+00 2.624047435044e-19 -1.808938880761e-19 0.000000000000e+00 2.593313790082e-19 -1.779485804339e-19 0.000000000000e+00 2.669061359484e-19 -1.727409350375e-19 0.000000000000e+00 2.581187194058e-19 -1.674750819802e-19 0.000000000000e+00 2.599289776602e-19 -1.593977989008e-19 0.000000000000e+00 2.685980386256e-19 -1.534936018288e-19 0.000000000000e+00 2.586755726952e-19 -1.675177675982e-19 0.000000000000e+00 2.792092952101e-19 -1.770444214344e-19 0.000000000000e+00 2.790560150364e-19 -1.735674838225e-19 0.000000000000e+00 2.902299456764e-19 -1.858027341465e-19 0.000000000000e+00 2.783846866805e-19 -1.952013311287e-19 0.000000000000e+00 2.933207724709e-19 -1.972269577285e-19 0.000000000000e+00 2.795139153022e-19 -2.106845689317e-19 0.000000000000e+00 2.798107743729e-19 -2.205449466904e-19 0.000000000000e+00 2.882819292912e-19 -2.319575287402e-19 0.000000000000e+00 2.960192796309e-19 -2.187715532879e-19 0.000000000000e+00 3.009052306879e-19 -2.143671736121e-19 0.000000000000e+00 3.241941158194e-19 -2.166372723877e-19 0.000000000000e+00 3.134800257006e-19 -2.280203625560e-19 0.000000000000e+00 3.205782559235e-19 -2.070368888477e-19 0.000000000000e+00 3.042599322119e-19 -1.935637556016e-19 0.000000000000e+00 3.034780093003e-19 -1.927119834969e-19 0.000000000000e+00 3.151311830152e-19 -1.810510487606e-19 0.000000000000e+00 3.026339982171e-19 -1.690447485695e-19 0.000000000000e+00 2.989009468971e-19 -1.653660243998e-19 0.000000000000e+00 3.095781721640e-19 -1.602515112609e-19 0.000000000000e+00 2.961865296432e-19 -1.491551908354e-19 0.000000000000e+00 2.972420285611e-19 -1.440607391601e-19 0.000000000000e+00 3.151137207169e-19 -1.359172165394e-19 0.000000000000e+00 3.040076990146e-19 -1.526463691448e-19 0.000000000000e+00 3.199779409139e-19 -1.432684333243e-19 0.000000000000e+00 3.251118566065e-19 -1.273480114605e-19 0.000000000000e+00 3.261615347583e-19 -1.402588959346e-19 0.000000000000e+00 3.337692760397e-19 -1.331523648673e-19 0.000000000000e+00 3.457096075484e-19 -1.480217145892e-19 0.000000000000e+00 3.436374148199e-19 -1.276107804908e-19 0.000000000000e+00 3.579467981278e-19 -1.173883316596e-19 0.000000000000e+00 3.480266605038e-19 -1.420034095645e-19 0.000000000000e+00 3.653740956603e-19 -1.516348371903e-19 0.000000000000e+00 3.643574018497e-19 -1.569065110137e-19 0.000000000000e+00 3.558280392705e-19 -1.583384194722e-19 0.000000000000e+00 3.420173015911e-19 -1.679873093963e-19 0.000000000000e+00 3.427487778633e-19 -1.604261342436e-19 0.000000000000e+00 3.305542729019e-19 -1.632065201799e-19 0.000000000000e+00 3.200807744482e-19 -1.746908916781e-19 0.000000000000e+00 3.211944810270e-19 -1.849102166792e-19 0.000000000000e+00 3.370812919457e-19 -1.898811509212e-19 0.000000000000e+00 3.258898990074e-19 -2.015382051468e-19 0.000000000000e+00 3.271821090796e-19 -2.112239599228e-19 0.000000000000e+00 3.374945663381e-19 -2.202601172030e-19 0.000000000000e+00 3.493957046885e-19 -2.061870569984e-19 0.000000000000e+00 3.505951705544e-19 -1.994155657788e-19 0.000000000000e+00 3.774327827462e-19 -2.027411634723e-19 0.000000000000e+00 3.623065519302e-19 -2.162600867450e-19 0.000000000000e+00 3.733050834853e-19 -1.951974506179e-19 0.000000000000e+00 3.519824531395e-19 -1.809171711405e-19 0.000000000000e+00 3.480767190922e-19 -1.749043197682e-19 0.000000000000e+00 3.596969084659e-19 -1.783017069101e-19 0.000000000000e+00 3.771475652078e-19 -1.875528444846e-19 0.000000000000e+00 3.800792910624e-19 -1.799470434586e-19 0.000000000000e+00 3.842294972856e-19 -1.943282162150e-19 0.000000000000e+00 3.898737001388e-19 -2.072076313198e-19 0.000000000000e+00 4.009327676613e-19 -1.908823226889e-19 0.000000000000e+00 4.058187187184e-19 -1.664971932769e-19 0.000000000000e+00 4.140046560982e-19 -1.606706064194e-19 0.000000000000e+00 4.211137517511e-19 -1.534392746786e-19 0.000000000000e+00 4.125378230431e-19 -1.270188173900e-19 0.000000000000e+00 4.199612400650e-19 -1.339300069958e-19 0.000000000000e+00 4.085602995474e-19 -1.393530207376e-19 0.000000000000e+00 4.239213012625e-19 -1.844018697739e-19 0.000000000000e+00 4.444511432666e-19 -1.962622627616e-19 0.000000000000e+00 4.572568286676e-19 -1.791903438667e-19 0.000000000000e+00 4.597791606405e-19 -1.648731995374e-19 0.000000000000e+00 4.619134415407e-19 -1.744677623113e-19 0.000000000000e+00 4.780156208047e-19 -1.692717584471e-19 0.000000000000e+00 4.943118256051e-19 -1.878710463643e-19 0.000000000000e+00 4.909567360301e-19 -1.466677834590e-19 0.000000000000e+00 5.593666476974e-19 -1.528882421553e-19 0.000000000000e+00 5.410079514453e-19 -1.657591201365e-19 0.000000000000e+00 5.542820144910e-19 -1.200901654859e-19 0.000000000000e+00 6.364743361094e-19 -1.263494292895e-19 0.000000000000e+00 6.178944507459e-19 -1.435214653611e-19 0.000000000000e+00 6.319263775367e-19 -9.266901708355e-20 0.000000000000e+00 7.276566369304e-19 -9.872696338046e-20 0.000000000000e+00 7.017600485900e-19 -1.196722584834e-19 0.000000000000e+00 7.179479871411e-19 5.419521282117e-20 0.000000000000e+00 7.811902226725e-19 4.842489336928e-20 0.000000000000e+00 7.561842115441e-19 2.907278637091e-20 0.000000000000e+00 7.714773043214e-19 1.595666011175e-20 0.000000000000e+00 6.894976346909e-19 6.488213936488e-21 0.000000000000e+00 6.692219661394e-19 -3.492459654808e-22 0.000000000000e+00 6.844684927880e-19 -3.044648716847e-20 0.000000000000e+00 6.104981972991e-19 -4.353156934182e-20 0.000000000000e+00 5.974150553811e-19 -4.841713234782e-20 0.000000000000e+00 6.165168694376e-19 -7.038470357656e-20 0.000000000000e+00 6.257175603726e-19 -5.275942385197e-20 0.000000000000e+00 6.346233324924e-19 -1.883017830551e-20 0.000000000000e+00 7.917762559373e-19 -3.459087262551e-20 0.000000000000e+00 7.698319677729e-19 -4.286279921735e-20 0.000000000000e+00 7.915240227400e-19 -2.952292561531e-20 0.000000000000e+00 7.466032305577e-19 -4.628673195839e-20 0.000000000000e+00 7.430525632420e-19 -9.066813314954e-21 0.000000000000e+00 7.456408638973e-19 -2.261561652025e-20 0.000000000000e+00 7.260636872767e-19 -1.669395714998e-20 0.000000000000e+00 7.111004379112e-19 -3.137780974309e-20 0.000000000000e+00 7.089157103716e-19 -3.975971291463e-20 0.000000000000e+00 6.933276987790e-19 -4.781565318505e-20 0.000000000000e+00 7.065136742312e-19 -3.396222988764e-20 0.000000000000e+00 6.798739680865e-19 -4.804848382870e-20 0.000000000000e+00 6.738591764588e-19 -6.590271368623e-20 0.000000000000e+00 6.654772732873e-19 -8.296919986606e-20 0.000000000000e+00 6.547825857221e-19 -7.371806229154e-20 0.000000000000e+00 6.775146175642e-19 -5.254599576195e-20 0.000000000000e+00 6.554228699921e-19 -3.806781023741e-20 0.000000000000e+00 6.491364426135e-19 -2.666686971982e-20 0.000000000000e+00 6.663697907546e-19 -2.042700846990e-20 0.000000000000e+00 6.483331768929e-19 -1.799004773299e-20 0.000000000000e+00 6.821401863514e-19 -1.001947869857e-20 0.000000000000e+00 6.978368522444e-19 -1.629814505577e-21 0.000000000000e+00 7.156639185268e-19 6.280606612563e-21 0.000000000000e+00 7.365216636875e-19 1.876226936777e-20 0.000000000000e+00 7.234559840678e-19 8.257726828257e-21 0.000000000000e+00 7.610658940393e-19 3.996926049391e-21 0.000000000000e+00 7.839803098856e-19 1.684141655763e-21 0.000000000000e+00 8.072672547617e-19 1.078878995031e-20 0.000000000000e+00 8.350672336140e-19 3.855481433372e-20 0.000000000000e+00 8.222091613182e-19 1.129306231936e-19 0.000000000000e+00 8.922252163757e-19 9.742022181551e-20 0.000000000000e+00 8.628439294019e-19 6.730648844192e-20 0.000000000000e+00 8.787113377669e-19 -4.897786614796e-20 0.000000000000e+00 8.718758181203e-19 -8.539063856006e-20 0.000000000000e+00 8.980832353700e-19 -3.702977361778e-20 0.000000000000e+00 9.047544153873e-19 6.633733088772e-21 0.000000000000e+00 9.121991752181e-19 -2.238472613196e-20 0.000000000000e+00 9.381013417927e-19 -1.288329561551e-21 0.000000000000e+00 9.744122507982e-19 -5.087582394481e-20 0.000000000000e+00 9.662219963502e-19 6.007418657343e-20 0.000000000000e+00 1.121934959277e-18 4.218503211935e-20 0.000000000000e+00 1.083048361276e-18 1.342967152596e-20 0.000000000000e+00 1.113318867283e-18 1.282101341834e-19 0.000000000000e+00 1.292447511029e-18 1.103151589632e-19 0.000000000000e+00 1.247041655006e-18 7.673399522901e-20 0.000000000000e+00 1.280620490434e-18 1.992045518762e-19 0.000000000000e+00 1.491676812293e-18 1.853136443704e-19 0.000000000000e+00 1.439635282926e-18 1.367950440567e-19 0.000000000000e+00 1.474908349337e-18 2.950740357240e-19 0.000000000000e+00 1.783693975691e-18 2.179457806051e-19 0.000000000000e+00 1.837174204411e-18 3.181688953191e-19 0.000000000000e+00 1.848180302962e-18 4.027310448388e-19 0.000000000000e+00 1.849119386558e-18 3.470922820270e-19 0.000000000000e+00 1.917101083867e-18 3.888815020521e-19 0.000000000000e+00 1.988819713006e-18 2.843071706593e-19 0.000000000000e+00 1.973919133889e-18 5.126969578365e-19 0.000000000000e+00 2.281904986982e-18 4.766392521560e-19 0.000000000000e+00 2.202779432992e-18 4.152546171099e-19 0.000000000000e+00 2.269220567541e-18 6.487825885415e-19 0.000000000000e+00 2.631023865736e-18 6.123678758740e-19 0.000000000000e+00 2.537901309552e-18 5.417084321380e-19 0.000000000000e+00 2.613170800032e-18 8.082327743371e-19 0.000000000000e+00 3.047814000941e-18 7.674680091441e-19 0.000000000000e+00 2.933940413641e-18 6.809760816395e-19 0.000000000000e+00 3.022214659723e-18 9.893478515248e-19 0.000000000000e+00 3.544385496449e-18 9.430378365020e-19 0.000000000000e+00 3.408065094845e-18 8.330936543643e-19 0.000000000000e+00 3.511121758493e-18 1.197737098361e-18 0.000000000000e+00 4.145218554186e-18 1.142009083803e-18 0.000000000000e+00 3.979414032074e-18 1.005283556879e-18 0.000000000000e+00 4.103699029656e-18 1.453231864919e-18 0.000000000000e+00 4.867617341612e-18 1.379028738787e-18 0.000000000000e+00 4.669305781135e-18 1.222414430231e-18 0.000000000000e+00 4.819083987968e-18 1.758791040629e-18 0.000000000000e+00 5.731443282760e-18 1.672284755235e-18 0.000000000000e+00 5.501282430487e-18 1.484898384660e-18 0.000000000000e+00 5.667862278642e-18 2.103939186782e-18 0.000000000000e+00 6.786127293405e-18 2.011920635899e-18 0.000000000000e+00 6.501771228310e-18 1.777510624379e-18 0.000000000000e+00 6.694340409013e-18 2.458253521809e-18 0.000000000000e+00 8.061715197982e-18 2.396394499253e-18 0.000000000000e+00 7.711774621081e-18 2.041952409400e-18 0.000000000000e+00 7.929199637147e-18 2.576471753931e-18 0.000000000000e+00 8.454195873734e-18 2.927088271084e-18 0.000000000000e+00 8.206703690424e-18 4.347188708683e-18 0.000000000000e+00 8.018182658513e-18 4.128564614803e-18 0.000000000000e+00 7.660467478369e-18 3.867887426168e-18 0.000000000000e+00 8.125963843971e-18 3.952179880192e-18 0.000000000000e+00 9.432351362193e-18 3.557623131201e-18 0.000000000000e+00 9.911751597732e-18 4.156713839620e-18 0.000000000000e+00 9.894135049156e-18 3.756726315866e-18 0.000000000000e+00 8.995625103125e-18 4.283191325764e-18 0.000000000000e+00 8.913550360982e-18 3.572145942599e-18 0.000000000000e+00 8.592220789675e-18 3.230308902857e-18 0.000000000000e+00 9.008427878143e-18 3.397922652463e-18 0.000000000000e+00 8.196084672818e-18 3.234386288871e-18 0.000000000000e+00 7.830135048910e-18 3.081280738115e-18 0.000000000000e+00 7.483202837951e-18 3.500748425722e-18 0.000000000000e+00 7.418745614511e-18 3.550065836559e-18 0.000000000000e+00 6.705545577764e-18 3.378069959581e-18 0.000000000000e+00 6.418690463761e-18 3.170268610120e-18 0.000000000000e+00 6.788361497456e-18 2.793385647237e-18 0.000000000000e+00 6.851457631759e-18 2.936848128835e-18 0.000000000000e+00 7.159343173650e-18 2.676884954174e-18 0.000000000000e+00 7.494468930721e-18 2.311994709695e-18 0.000000000000e+00 7.399572011006e-18 2.205806473891e-18 0.000000000000e+00 7.083909925617e-18 1.946575939655e-18 0.000000000000e+00 7.280112040462e-18 2.432645608981e-18 0.000000000000e+00 6.868235019889e-18 2.656683015327e-18 0.000000000000e+00 6.554831391744e-18 2.530640146385e-18 0.000000000000e+00 6.276167065759e-18 2.872664481401e-18 0.000000000000e+00 6.222880862576e-18 2.921112657835e-18 0.000000000000e+00 5.644807970384e-18 2.783300199856e-18 0.000000000000e+00 5.415396056681e-18 2.608739305288e-18 0.000000000000e+00 5.710999782120e-18 2.299738116562e-18 0.000000000000e+00 5.761818950608e-18 2.412614412606e-18 0.000000000000e+00 6.009499338688e-18 2.208173585435e-18 0.000000000000e+00 6.290990616738e-18 1.927471021190e-18 0.000000000000e+00 6.231846782612e-18 1.842753651241e-18 0.000000000000e+00 5.967007746221e-18 1.647076569498e-18 0.000000000000e+00 6.147933454486e-18 2.011951679985e-18 0.000000000000e+00 5.776663844396e-18 2.193850620339e-18 0.000000000000e+00 5.527973553399e-18 2.095180874070e-18 0.000000000000e+00 5.301621422404e-18 2.370219832907e-18 0.000000000000e+00 5.261672534592e-18 2.408171227823e-18 0.000000000000e+00 4.791927979871e-18 2.296171927204e-18 0.000000000000e+00 4.600804095389e-18 2.155732363462e-18 0.000000000000e+00 4.842685060188e-18 1.908435175816e-18 0.000000000000e+00 4.878102481598e-18 2.000737003982e-18 0.000000000000e+00 5.085572047392e-18 1.832745814075e-18 0.000000000000e+00 5.314961648158e-18 1.596558528642e-18 0.000000000000e+00 5.280428983194e-18 1.526072931786e-18 0.000000000000e+00 5.066690452319e-18 1.357978908345e-18 0.000000000000e+00 5.225865897955e-18 1.668107385437e-18 0.000000000000e+00 4.894117349371e-18 1.820727872352e-18 0.000000000000e+00 4.684095377646e-18 1.736893318594e-18 0.000000000000e+00 4.498717559424e-18 1.963134855032e-18 0.000000000000e+00 4.464570035149e-18 1.989894857009e-18 0.000000000000e+00 4.081522880976e-18 1.898435099671e-18 0.000000000000e+00 3.925548662664e-18 1.784472260624e-18 0.000000000000e+00 4.124948706400e-18 1.579088469346e-18 0.000000000000e+00 4.156115028309e-18 1.655841091027e-18 0.000000000000e+00 4.324101367577e-18 1.514982432127e-18 0.000000000000e+00 4.514006771691e-18 1.315745369842e-18 0.000000000000e+00 4.485793518446e-18 1.255896252890e-18 0.000000000000e+00 4.309934593039e-18 1.112604513764e-18 0.000000000000e+00 4.441778437467e-18 1.378958889594e-18 0.000000000000e+00 4.169585251172e-18 1.505839948853e-18 0.000000000000e+00 3.996741482600e-18 1.436219705890e-18 0.000000000000e+00 3.844543001226e-18 1.623322411130e-18 0.000000000000e+00 3.816214302788e-18 1.648995870103e-18 0.000000000000e+00 3.497554522861e-18 1.572902935247e-18 0.000000000000e+00 3.363919434681e-18 1.476386872431e-18 0.000000000000e+00 3.530864826947e-18 1.304429800560e-18 0.000000000000e+00 3.558840398910e-18 1.369342984011e-18 0.000000000000e+00 3.696937104299e-18 1.254045249273e-18 0.000000000000e+00 3.854105549787e-18 1.090353665253e-18 0.000000000000e+00 3.828729920012e-18 1.038521683464e-18 0.000000000000e+00 3.683713293867e-18 9.206775575876e-19 0.000000000000e+00 3.791256604018e-18 1.138906615476e-18 0.000000000000e+00 3.568932637184e-18 1.241875967632e-18 0.000000000000e+00 3.422373508026e-18 1.182911607126e-18 0.000000000000e+00 3.293851962856e-18 1.340386612962e-18 0.000000000000e+00 3.269941225881e-18 9.790256929894e-19 0.000000000000e+00 2.589276361202e-18 8.630876739820e-19 0.000000000000e+00 2.619829562415e-18 9.105657227337e-19 0.000000000000e+00 2.718132600421e-18 1.096834118168e-18 0.000000000000e+00 2.555781732857e-18 1.040601637214e-18 0.000000000000e+00 2.460570491773e-18 1.227744611902e-18 0.000000000000e+00 2.531063849650e-18 1.159426756203e-18 0.000000000000e+00 2.660640893737e-18 1.092220190912e-18 0.000000000000e+00 2.801142545650e-18 1.226245270421e-18 0.000000000000e+00 2.772646015122e-18 1.371915705069e-18 0.000000000000e+00 2.746804724059e-18 1.295760739595e-18 0.000000000000e+00 2.887184139884e-18 1.362028221289e-18 0.000000000000e+00 3.001974497844e-18 1.215228500466e-18 0.000000000000e+00 3.031337352392e-18 1.069573530306e-18 0.000000000000e+00 3.055352863157e-18 1.125514972955e-18 0.000000000000e+00 3.171987433840e-18 1.031719148159e-18 0.000000000000e+00 3.304464189569e-18 8.984701707959e-19 0.000000000000e+00 3.284969473801e-18 8.522183634341e-19 0.000000000000e+00 3.162754728692e-18 7.601827383041e-19 0.000000000000e+00 3.253969625803e-18 9.306085606416e-19 0.000000000000e+00 3.065332566621e-18 1.014885492623e-18 0.000000000000e+00 2.939376039042e-18 9.601470082998e-19 0.000000000000e+00 2.825385066293e-18 8.369175096353e-19 0.000000000000e+00 2.841100164612e-18 7.284611153106e-19 0.000000000000e+00 2.829882578226e-18 6.881193257868e-19 0.000000000000e+00 2.726756065385e-18 6.161653436720e-19 0.000000000000e+00 2.807356213452e-18 7.494119927287e-19 0.000000000000e+00 2.639192340818e-18 8.165836334229e-19 0.000000000000e+00 2.523542449732e-18 7.698894478381e-19 0.000000000000e+00 2.429293575309e-18 8.771622863909e-19 0.000000000000e+00 2.398575452389e-18 8.751793454091e-19 0.000000000000e+00 2.186879040285e-18 8.278603975972e-19 0.000000000000e+00 2.107858260085e-18 7.831316906959e-19 0.000000000000e+00 2.223544045895e-18 6.893610892196e-19 0.000000000000e+00 2.258102904307e-18 7.286279772719e-19 0.000000000000e+00 2.339637285331e-18 6.687419954687e-19 0.000000000000e+00 2.452531043673e-18 5.794262203077e-19 0.000000000000e+00 2.448362405024e-18 5.469075404108e-19 0.000000000000e+00 2.360470777300e-18 4.848546814173e-19 0.000000000000e+00 2.432671171846e-18 5.970941856503e-19 0.000000000000e+00 2.281976776430e-18 6.507713502894e-19 0.000000000000e+00 2.177211717935e-18 6.119681832691e-19 0.000000000000e+00 2.097208198393e-18 6.970716640353e-19 0.000000000000e+00 2.064094830227e-18 6.940778500090e-19 0.000000000000e+00 1.880982260142e-18 6.551737897098e-19 0.000000000000e+00 1.814444112824e-18 6.191626501580e-19 0.000000000000e+00 1.918493217090e-18 5.448081841071e-19 0.000000000000e+00 1.954253093572e-18 5.775208895405e-19 0.000000000000e+00 2.023153501796e-18 5.282519850880e-19 0.000000000000e+00 2.124197150503e-18 4.471822952231e-19 0.000000000000e+00 2.126590455494e-18 4.216330125928e-19 0.000000000000e+00 2.053012091589e-18 3.577640745789e-19 0.000000000000e+00 2.116759569617e-18 4.684319719672e-19 0.000000000000e+00 1.981386594707e-18 5.127396434546e-19 0.000000000000e+00 1.886077370727e-18 4.791033764680e-19 0.000000000000e+00 1.819319974553e-18 5.477612527708e-19 0.000000000000e+00 1.784609776223e-18 4.492903826758e-19 0.000000000000e+00 1.755980338203e-18 4.825143453976e-19 0.000000000000e+00 1.660436343324e-18 4.212905575211e-19 0.000000000000e+00 1.696592031900e-18 5.419676502546e-19 0.000000000000e+00 1.623593804349e-18 5.021778633818e-19 0.000000000000e+00 1.578093845941e-18 4.800150691153e-19 0.000000000000e+00 1.513266033726e-18 4.260276909918e-19 0.000000000000e+00 1.550934151358e-18 3.449618816376e-19 0.000000000000e+00 1.532980968477e-18 3.700707263003e-19 0.000000000000e+00 1.584630566261e-18 3.857576909165e-19 0.000000000000e+00 1.648241838363e-18 3.131638813159e-19 0.000000000000e+00 1.616312996096e-18 3.509252564982e-19 0.000000000000e+00 1.723925379338e-18 2.745927001039e-19 0.000000000000e+00 1.716925908113e-18 2.576357130598e-19 0.000000000000e+00 1.650424625647e-18 1.923204399645e-19 0.000000000000e+00 1.698341948213e-18 2.389341121993e-19 0.000000000000e+00 1.595203017738e-18 1.617530463704e-19 0.000000000000e+00 1.577989460202e-18 2.178595918186e-19 0.000000000000e+00 1.544436236145e-18 2.686945606456e-19 0.000000000000e+00 1.513116634063e-18 3.191189838011e-19 0.000000000000e+00 1.481148986689e-18 2.937286277908e-19 0.000000000000e+00 1.427392271580e-18 3.691735325143e-19 0.000000000000e+00 1.445378438802e-18 2.161434773977e-19 0.000000000000e+00 1.160339403820e-18 1.566872621576e-19 0.000000000000e+00 1.144999744914e-18 1.766243561481e-19 0.000000000000e+00 1.186759861109e-18 2.776073718754e-19 0.000000000000e+00 1.173242101989e-18 2.535748838757e-19 0.000000000000e+00 1.132911953997e-18 3.419527545271e-19 0.000000000000e+00 1.182683384589e-18 3.032240783796e-19 0.000000000000e+00 1.215512505344e-18 2.626281154032e-19 0.000000000000e+00 1.246768079000e-18 3.298113976295e-19 0.000000000000e+00 1.259176012051e-18 3.993269613645e-19 0.000000000000e+00 1.269472947267e-18 3.576963536034e-19 0.000000000000e+00 1.305262897707e-18 3.870006594298e-19 0.000000000000e+00 1.355573719290e-18 3.134561969394e-19 0.000000000000e+00 1.341014043040e-18 2.436218892399e-19 0.000000000000e+00 1.324496649128e-18 2.687414507818e-19 0.000000000000e+00 1.375335220170e-18 2.248393154029e-19 0.000000000000e+00 1.407758827554e-18 1.686896818380e-19 0.000000000000e+00 1.390055937615e-18 1.480279024690e-19 0.000000000000e+00 1.339003938483e-18 1.130090095103e-19 0.000000000000e+00 1.372583938064e-18 1.805688043532e-19 0.000000000000e+00 1.306665702335e-18 2.198764377681e-19 0.000000000000e+00 1.276277422827e-18 1.978492946364e-19 0.000000000000e+00 1.230803657866e-18 1.395397703163e-19 0.000000000000e+00 1.213847766242e-18 9.371045355995e-20 0.000000000000e+00 1.203706051456e-18 7.695828874906e-20 0.000000000000e+00 1.160242391052e-18 4.867091774940e-20 0.000000000000e+00 1.193141361000e-18 1.033704999524e-19 0.000000000000e+00 1.129402032044e-18 1.375189943550e-19 0.000000000000e+00 1.105292418894e-18 1.187455685188e-19 0.000000000000e+00 1.066535818002e-18 1.734733814374e-19 0.000000000000e+00 1.081974429932e-18 1.881096977741e-19 0.000000000000e+00 1.021939048466e-18 1.677787319447e-19 0.000000000000e+00 9.871095244307e-19 1.351048316186e-19 0.000000000000e+00 1.008646358969e-18 8.341351834436e-20 0.000000000000e+00 9.935046061097e-19 1.007584311689e-19 0.000000000000e+00 1.029183961994e-18 6.890137835095e-20 0.000000000000e+00 1.051489137656e-18 2.768356353045e-20 0.000000000000e+00 1.046145674385e-18 1.514563336968e-20 0.000000000000e+00 1.008339798621e-18 -1.449370756745e-20 0.000000000000e+00 1.038823538693e-18 3.700358017037e-20 0.000000000000e+00 9.787916496862e-19 6.734335329384e-20 0.000000000000e+00 9.590320890614e-19 5.320762284100e-20 0.000000000000e+00 9.269790704517e-19 1.001443403463e-19 0.000000000000e+00 9.420179897764e-19 3.762155150374e-20 0.000000000000e+00 8.946679978787e-19 2.338104726126e-20 0.000000000000e+00 8.647725432335e-19 -1.845861940334e-20 0.000000000000e+00 8.492679626215e-19 -5.862772619973e-20 0.000000000000e+00 8.387964044232e-19 -6.548132612065e-20 0.000000000000e+00 8.075776956199e-19 -9.685754776001e-20 0.000000000000e+00 8.287031960208e-19 -7.354662343029e-20 0.000000000000e+00 7.803578531214e-19 -1.092579054546e-19 0.000000000000e+00 7.687702600379e-19 -8.385750831508e-20 0.000000000000e+00 7.542323146481e-19 -6.604859653740e-20 0.000000000000e+00 7.392826470702e-19 -5.739275366068e-20 0.000000000000e+00 7.209297715841e-19 -6.535944218437e-20 0.000000000000e+00 6.996762143293e-19 -8.373366047939e-20 0.000000000000e+00 6.892745053240e-19 -1.046515535563e-19 0.000000000000e+00 6.795033793120e-19 -1.125212293118e-19 0.000000000000e+00 6.567267215966e-19 -1.287437044084e-19 0.000000000000e+00 6.712328467984e-19 -9.923630083601e-20 0.000000000000e+00 6.440141684531e-19 -8.652762820323e-20 0.000000000000e+00 6.352791388053e-19 -8.514228587349e-20 0.000000000000e+00 6.137054394154e-19 -9.446715315183e-20 0.000000000000e+00 5.947549652774e-19 -7.364239233236e-20 0.000000000000e+00 5.875003504722e-19 -7.082708179951e-20 0.000000000000e+00 5.430258170236e-19 -8.045656916996e-20 0.000000000000e+00 5.237746033041e-19 -9.035769229134e-20 0.000000000000e+00 5.519083060790e-19 -1.098766612510e-19 0.000000000000e+00 5.586429324467e-19 -1.031556166708e-19 0.000000000000e+00 5.775759442865e-19 -1.142111917337e-19 0.000000000000e+00 6.012334779371e-19 -1.325272023678e-19 0.000000000000e+00 5.990836749940e-19 -1.395974929134e-19 0.000000000000e+00 5.793415766675e-19 -1.528859138489e-19 0.000000000000e+00 5.935954686720e-19 -1.290580257773e-19 0.000000000000e+00 5.621567349105e-19 -1.164502464235e-19 0.000000000000e+00 5.385496478993e-19 -1.238193362951e-19 0.000000000000e+00 5.205712416985e-19 -1.065840478987e-19 0.000000000000e+00 5.138540776291e-19 -1.022883225232e-19 0.000000000000e+00 4.776411515195e-19 -1.086931054791e-19 0.000000000000e+00 4.612634559938e-19 -1.190404873341e-19 0.000000000000e+00 4.837645974476e-19 -1.349777448922e-19 0.000000000000e+00 4.903653461952e-19 -1.293917496999e-19 0.000000000000e+00 5.047096540996e-19 -1.413980498910e-19 0.000000000000e+00 5.245041393209e-19 -1.599895767868e-19 0.000000000000e+00 5.246535389839e-19 -1.654999020199e-19 0.000000000000e+00 5.082991265226e-19 -1.781829632819e-19 0.000000000000e+00 5.218347359914e-19 -1.519976649433e-19 0.000000000000e+00 4.948997229803e-19 -1.413728265713e-19 0.000000000000e+00 4.742282423346e-19 -1.470092684031e-19 0.000000000000e+00 4.569502683201e-19 -1.320596008251e-19 0.000000000000e+00 4.530406537621e-19 -1.521509451171e-19 0.000000000000e+00 4.419889592100e-19 -1.561692139755e-19 0.000000000000e+00 4.288146252899e-19 -1.737634496142e-19 0.000000000000e+00 4.322508175392e-19 -1.883910348018e-19 0.000000000000e+00 4.312244224517e-19 -1.899121950070e-19 0.000000000000e+00 4.199864633847e-19 -2.049887552857e-19 0.000000000000e+00 4.287280899007e-19 -1.795357093215e-19 0.000000000000e+00 4.116647081294e-19 -1.734588295221e-19 0.000000000000e+00 4.006673407275e-19 -1.686237131556e-19 0.000000000000e+00 3.886028328755e-19 -1.601952438553e-19 0.000000000000e+00 3.927433378218e-19 -1.624342985451e-19 0.000000000000e+00 3.832826526680e-19 -1.555657945573e-19 0.000000000000e+00 3.807370376308e-19 -1.502999415000e-19 0.000000000000e+00 3.879159824767e-19 -1.509363452593e-19 0.000000000000e+00 3.997709427495e-19 -1.422828063369e-19 0.000000000000e+00 4.053821612615e-19 -1.370363558332e-19 0.000000000000e+00 3.959602812150e-19 -1.261476427317e-19 0.000000000000e+00 3.873086825479e-19 -1.121681028356e-19 0.000000000000e+00 3.884088073391e-19 -1.069274730980e-19 0.000000000000e+00 4.015094115554e-19 -9.879935532808e-20 0.000000000000e+00 3.919594746549e-19 -1.124591411402e-19 0.000000000000e+00 4.138921212871e-19 -1.207226887345e-19 0.000000000000e+00 4.334537758647e-19 -1.147622242570e-19 0.000000000000e+00 4.476816684473e-19 -1.004023943096e-19 0.000000000000e+00 4.435683270761e-19 -8.820400883754e-20 0.000000000000e+00 4.435508647778e-19 -7.989583536983e-20 0.000000000000e+00 4.568959411699e-19 -7.110415026546e-20 0.000000000000e+00 4.436688323040e-19 -8.790714976688e-20 0.000000000000e+00 4.738673548369e-19 -9.654904715717e-20 0.000000000000e+00 4.935784090776e-19 -8.965920036038e-20 0.000000000000e+00 5.064694657146e-19 -7.298270550867e-20 0.000000000000e+00 4.994670841067e-19 -5.649247517188e-20 0.000000000000e+00 4.979439836461e-19 -4.697358235717e-20 0.000000000000e+00 5.159029872933e-19 -3.605033271015e-20 0.000000000000e+00 4.989079025108e-19 -5.431162814299e-20 0.000000000000e+00 5.362659673362e-19 -6.214637930195e-20 0.000000000000e+00 5.607946756451e-19 -5.378581893941e-20 0.000000000000e+00 5.805193116733e-19 -3.419894104203e-20 0.000000000000e+00 5.738545344987e-19 -1.393103351196e-20 0.000000000000e+00 5.706104275305e-19 -2.374872565269e-21 0.000000000000e+00 5.882027229139e-19 1.039821654558e-20 0.000000000000e+00 5.691366095562e-19 -1.291433970133e-20 0.000000000000e+00 6.082455608218e-19 -1.676380634308e-20 0.000000000000e+00 6.282437728563e-19 -4.501392443975e-21 0.000000000000e+00 6.493421096820e-19 1.112930476665e-20 0.000000000000e+00 6.498776201624e-19 3.407476469874e-20 0.000000000000e+00 6.493265876391e-19 4.774968450268e-20 0.000000000000e+00 6.727532309014e-19 6.308895535767e-20 0.000000000000e+00 6.497728463728e-19 3.581711401542e-20 0.000000000000e+00 6.944045405059e-19 2.754386514425e-20 0.000000000000e+00 7.094240572769e-19 4.032626748085e-20 0.000000000000e+00 7.339294825215e-19 6.307382136583e-20 0.000000000000e+00 7.410502197066e-19 9.194482117891e-20 0.000000000000e+00 7.399219612125e-19 1.083516205351e-19 0.000000000000e+00 7.645573835665e-19 1.274445094168e-19 0.000000000000e+00 7.389039092232e-19 9.025291850169e-20 0.000000000000e+00 7.906761311460e-19 6.607927692433e-20 0.000000000000e+00 8.079055987764e-19 8.126953616738e-20 0.000000000000e+00 8.344657544512e-19 1.228414475918e-19 0.000000000000e+00 8.437770399420e-19 1.608956760416e-19 0.000000000000e+00 8.426225880006e-19 1.822966927042e-19 0.000000000000e+00 8.721959602553e-19 2.054148353636e-19 0.000000000000e+00 8.420583617408e-19 1.594424247742e-19 0.000000000000e+00 9.013909827142e-19 1.303395644451e-19 0.000000000000e+00 9.228831913788e-19 1.487457969536e-19 0.000000000000e+00 9.540572743087e-19 1.980224624276e-19 0.000000000000e+00 9.633782610763e-19 2.459254271040e-19 0.000000000000e+00 9.625846966325e-19 2.716774664198e-19 0.000000000000e+00 9.990285131304e-19 3.027752973139e-19 0.000000000000e+00 9.626692917664e-19 2.423999831080e-19 0.000000000000e+00 1.031582117624e-18 2.091149023424e-19 0.000000000000e+00 1.058002574913e-18 2.305925590917e-19 0.000000000000e+00 1.094221321788e-18 2.896646037698e-19 0.000000000000e+00 1.103581113663e-18 3.482452787769e-19 0.000000000000e+00 1.106305232194e-18 3.773687207461e-19 0.000000000000e+00 1.148461160483e-18 4.168244777247e-19 0.000000000000e+00 1.108786818804e-18 4.062363781069e-19 0.000000000000e+00 1.188837874603e-18 4.792154140887e-19 0.000000000000e+00 1.194724609377e-18 4.379777292248e-19 0.000000000000e+00 1.233203753751e-18 4.665716914450e-19 0.000000000000e+00 1.280276289132e-18 4.905551913718e-19 0.000000000000e+00 1.328247162746e-18 5.331226176253e-19 0.000000000000e+00 1.284257305088e-18 4.574190825224e-19 0.000000000000e+00 1.367308383730e-18 4.163922615893e-19 0.000000000000e+00 1.406600495102e-18 4.479318931772e-19 0.000000000000e+00 1.459519019894e-18 5.248468369246e-19 0.000000000000e+00 1.470764739982e-18 5.923192172001e-19 0.000000000000e+00 1.476738786247e-18 6.282508062820e-19 0.000000000000e+00 1.531795472450e-18 6.632856093347e-19 0.000000000000e+00 1.479648781242e-18 6.049405783415e-19 0.000000000000e+00 1.593291866205e-18 5.777614812056e-19 0.000000000000e+00 1.684199620892e-18 6.158370524645e-19 0.000000000000e+00 1.748939151488e-18 6.852768516789e-19 0.000000000000e+00 1.716126522903e-18 7.529626600444e-19 0.000000000000e+00 1.704104215605e-18 8.026991660396e-19 0.000000000000e+00 1.766431038656e-18 8.353334851563e-19 0.000000000000e+00 1.701823348412e-18 7.730850484222e-19 0.000000000000e+00 1.848529548928e-18 7.369206286967e-19 0.000000000000e+00 1.952907526478e-18 7.816803796838e-19 0.000000000000e+00 2.029320603469e-18 8.673290722072e-19 0.000000000000e+00 1.995962763128e-18 9.587752477576e-19 0.000000000000e+00 1.973172281093e-18 1.034407371966e-18 0.000000000000e+00 2.051410168254e-18 1.084402902052e-18 0.000000000000e+00 1.968266878976e-18 9.813307163616e-19 0.000000000000e+00 2.152194065275e-18 9.284199525913e-19 0.000000000000e+00 2.272799368560e-18 9.842333383858e-19 0.000000000000e+00 2.365474695883e-18 1.101905945688e-18 0.000000000000e+00 2.331105982497e-18 1.233983978940e-18 0.000000000000e+00 2.321386273252e-18 1.301914753693e-18 0.000000000000e+00 2.437322352004e-18 1.398653257638e-18 0.000000000000e+00 2.325059176655e-18 1.372038710379e-18 0.000000000000e+00 2.539271129839e-18 1.551244079465e-18 0.000000000000e+00 2.552831574576e-18 1.453142618768e-18 0.000000000000e+00 2.647744016334e-18 1.525348378865e-18 0.000000000000e+00 2.763258089544e-18 1.580389372968e-18 0.000000000000e+00 2.876338112401e-18 1.681852114004e-18 0.000000000000e+00 2.769213897409e-18 1.508164374779e-18 0.000000000000e+00 2.976467900832e-18 1.428055111319e-18 0.000000000000e+00 3.117666104420e-18 1.498478620003e-18 0.000000000000e+00 3.238201558512e-18 1.658437152704e-18 0.000000000000e+00 3.207071131328e-18 1.810504666840e-18 0.000000000000e+00 3.208795048219e-18 1.887963541473e-18 0.000000000000e+00 3.333066464014e-18 1.977290958166e-18 0.000000000000e+00 3.214963508071e-18 1.818919554353e-18 0.000000000000e+00 3.464883532918e-18 1.727207563818e-18 0.000000000000e+00 3.635473694885e-18 1.810626902928e-18 0.000000000000e+00 3.776996891247e-18 1.996223970006e-18 0.000000000000e+00 3.737456427189e-18 2.167567921182e-18 0.000000000000e+00 3.721941175172e-18 2.273699889580e-18 0.000000000000e+00 3.863409074256e-18 2.357757184654e-18 0.000000000000e+00 3.718849766301e-18 2.192601095885e-18 0.000000000000e+00 4.034106920396e-18 2.086511813104e-18 0.000000000000e+00 4.243083094480e-18 2.189679071307e-18 0.000000000000e+00 4.418731502180e-18 2.409936860204e-18 0.000000000000e+00 4.367261378017e-18 2.616682710747e-18 0.000000000000e+00 4.335339326644e-18 2.751755528152e-18 0.000000000000e+00 4.512152857690e-18 2.849805168808e-18 0.000000000000e+00 4.322162858443e-18 2.657051663846e-18 0.000000000000e+00 4.732641536975e-18 2.527512454738e-18 0.000000000000e+00 4.992182706095e-18 2.652852951239e-18 0.000000000000e+00 5.200955153365e-18 2.927977281312e-18 0.000000000000e+00 5.132912338013e-18 3.186225270232e-18 0.000000000000e+00 5.087439543180e-18 3.346886175374e-18 0.000000000000e+00 5.307084211381e-18 3.474573604763e-18 0.000000000000e+00 5.069992766948e-18 3.226202291747e-18 0.000000000000e+00 5.574361178636e-18 3.066596885522e-18 0.000000000000e+00 5.893631168874e-18 3.217622482528e-18 0.000000000000e+00 6.148450726566e-18 3.556173760444e-18 0.000000000000e+00 6.067133654142e-18 3.875729938348e-18 0.000000000000e+00 6.020805206693e-18 4.067450451354e-18 0.000000000000e+00 6.290349362340e-18 4.227407043800e-18 0.000000000000e+00 6.002595910104e-18 3.925462563833e-18 0.000000000000e+00 6.612957561932e-18 3.731856122613e-18 0.000000000000e+00 7.007891690591e-18 3.923568874598e-18 0.000000000000e+00 7.325184560614e-18 4.342206132909e-18 0.000000000000e+00 7.218141642322e-18 4.729170662661e-18 0.000000000000e+00 7.163461365659e-18 4.966502698759e-18 0.000000000000e+00 7.498724880861e-18 5.153142847121e-18 0.000000000000e+00 7.141629030230e-18 4.808290395886e-18 0.000000000000e+00 7.893879228504e-18 4.580380239834e-18 0.000000000000e+00 8.391181230157e-18 4.820952502390e-18 0.000000000000e+00 8.799120890520e-18 5.338577708850e-18 0.000000000000e+00 8.676988606264e-18 5.070564414685e-18 0.000000000000e+00 9.221225385166e-18 5.813455209136e-18 0.000000000000e+00 8.596321519387e-18 6.121338810772e-18 0.000000000000e+00 8.994905268385e-18 6.331852637231e-18 0.000000000000e+00 8.549181075068e-18 5.921263558169e-18 0.000000000000e+00 9.517936996417e-18 5.344274298598e-18 0.000000000000e+00 9.674599035255e-18 4.746530127401e-18 0.000000000000e+00 9.809473946613e-18 4.370656097308e-18 0.000000000000e+00 1.039824249650e-17 4.604567463199e-18 0.000000000000e+00 1.091934949121e-17 3.925618026794e-18 0.000000000000e+00 1.093923904894e-17 4.853587597609e-18 0.000000000000e+00 1.147407626073e-17 4.309396414707e-18 0.000000000000e+00 1.212522499069e-17 3.451802573788e-18 0.000000000000e+00 1.199725932869e-17 3.365687492381e-18 0.000000000000e+00 1.131802637246e-17 2.615337725729e-18 0.000000000000e+00 1.179467726615e-17 3.244179970352e-18 0.000000000000e+00 1.075371474144e-17 2.501682611182e-18 0.000000000000e+00 1.056907072780e-17 3.081173781538e-18 0.000000000000e+00 1.024934438950e-17 2.938695009410e-18 0.000000000000e+00 9.746858025513e-18 2.828503117295e-18 0.000000000000e+00 9.273757799140e-18 2.338021295145e-18 0.000000000000e+00 9.543840569677e-18 2.706290765294e-18 0.000000000000e+00 8.847386682949e-18 2.162503185446e-18 0.000000000000e+00 8.674490527483e-18 
        </DataArray>
        <DataArray type="Float64" Name="DISPLACEMENT" NumberOfComponents="3" format="ascii">
          0.000000000000e+00 0.000000000000e+00 -1.280477230952e-01 0.000000000000e+00 0.000000000000e+00 -1.252020307947e-01 0.000000000000e+00 0.000000000000e+00 -1.223563461150e-01 0.000000000000e+00 0.000000000000e+00 -1.195106684893e-01 0.000000000000e+00 0.000000000000e+00 -1.166649975601e-01 0.000000000000e+00 0.000000000000e+00 -1.138193331755e-01 0.000000000000e+00 0.000000000000e+00 -1.109736753875e-01 0.000000000000e+00 0.000000000000e+00 -1.081280244489e-01 0.000000000000e+00 0.000000000000e+00 -1.052823807994e-01 0.000000000000e+00 0.000000000000e+00 -1.024367450332e-01 0.000000000000e+00 0.000000000000e+00 -9.959111788179e-02 3.764413327747e-08 0.000000000000e+00 -9.959111453744e-02 7.537815264153e-08 0.000000000000e+00 -9.959111398883e-02 1.132894515502e-07 0.000000000000e+00 -9.959111626912e-02 1.514334234083e-07 0.000000000000e+00 -9.959112144527e-02 1.898130659821e-07 0.000000000000e+00 -9.959112963415e-02 2.283480235974e-07 0.000000000000e+00 -9.959114102425e-02 2.668266861128e-07 0.000000000000e+00 -9.959115590194e-02 3.048313510789e-07 0.000000000000e+00 -9.959117467801e-02 3.416257309355e-07 0.000000000000e+00 -9.959119790349e-02 3.759993528199e-07 0.000000000000e+00 -9.959122625004e-02 4.060820676444e-07 0.000000000000e+00 -9.959126039886e-02 4.291949687415e-07 0.000000000000e+00 -9.959130073531e-02 4.419833455550e-07 0.000000000000e+00 -9.959134671761e-02 4.413776207540e-07 0.000000000000e+00 -9.959139598492e-02 4.268410593806e-07 0.000000000000e+00 -9.959144407270e-02 4.023247704090e-07 0.000000000000e+00 -9.959148590105e-02 3.754916583180e-07 0.000000000000e+00 -9.959151962823e-02 3.735162396526e-07 0.000000000000e+00 -1.024372280368e-01 3.749582965747e-07 0.000000000000e+00 -1.052829369052e-01 3.800572890706e-07 0.000000000000e+00 -1.081286478500e-01 3.890020101354e-07 0.000000000000e+00 -1.109743618173e-01 4.019266093363e-07 0.000000000000e+00 -1.138200793706e-01 3.948122086760e-07 0.000000000000e+00 -1.138199762658e-01 3.813364490888e-07 0.000000000000e+00 -1.112240530240e-01 3.706128106479e-07 0.000000000000e+00 -1.086281326100e-01 3.624996964848e-07 0.000000000000e+00 -1.060322145899e-01 3.567967875167e-07 0.000000000000e+00 -1.034362982803e-01 3.532477325875e-07 0.000000000000e+00 -1.008403825807e-01 3.515621144977e-07 0.000000000000e+00 -9.824446571489e-02 3.514886337542e-07 0.000000000000e+00 -9.564854478532e-02 3.534227856046e-07 0.000000000000e+00 -9.305261496454e-02 3.611798014947e-07 0.000000000000e+00 -9.045666885340e-02 3.901017198735e-07 0.000000000000e+00 -8.786070400226e-02 4.644841644904e-07 0.000000000000e+00 -8.526476471821e-02 4.493682759832e-07 0.000000000000e+00 -8.526405972201e-02 4.469190679125e-07 0.000000000000e+00 -8.526334197039e-02 4.483028826013e-07 0.000000000000e+00 -8.526261655017e-02 4.502555918195e-07 0.000000000000e+00 -8.526188489299e-02 4.514427480388e-07 0.000000000000e+00 -8.526114792033e-02 4.512487640309e-07 0.000000000000e+00 -8.526040636179e-02 4.493653074780e-07 0.000000000000e+00 -8.525966074601e-02 4.456431742883e-07 0.000000000000e+00 -8.525891145717e-02 4.400251510994e-07 0.000000000000e+00 -8.525815878444e-02 4.325107967360e-07 0.000000000000e+00 -8.525740295455e-02 4.231338261883e-07 0.000000000000e+00 -8.525664415077e-02 4.119484828692e-07 0.000000000000e+00 -8.525588252115e-02 3.990218778237e-07 0.000000000000e+00 -8.525511818339e-02 3.844297118028e-07 0.000000000000e+00 -8.525435123063e-02 3.682539419668e-07 0.000000000000e+00 -8.525358173409e-02 3.505809965886e-07 0.000000000000e+00 -8.525280974598e-02 3.315012344590e-07 0.000000000000e+00 -8.525203530339e-02 3.111083513465e-07 0.000000000000e+00 -8.525125842991e-02 2.894977184236e-07 0.000000000000e+00 -8.525047913835e-02 2.667665177705e-07 0.000000000000e+00 -8.524969743282e-02 2.430139543329e-07 0.000000000000e+00 -8.524891331036e-02 2.183403547958e-07 0.000000000000e+00 -8.524812676392e-02 1.928470924275e-07 0.000000000000e+00 -8.524733778257e-02 1.666359426158e-07 0.000000000000e+00 -8.524654635306e-02 1.398081931904e-07 0.000000000000e+00 -8.524575246184e-02 1.124654028012e-07 0.000000000000e+00 -8.524495609523e-02 8.471035068580e-08 0.000000000000e+00 -8.524415724074e-02 5.664617125888e-08 0.000000000000e+00 -8.524335588839e-02 2.837516222941e-08 0.000000000000e+00 -8.524255203086e-02 0.000000000000e+00 0.000000000000e+00 -8.524174566470e-02 0.000000000000e+00 0.000000000000e+00 -8.791714143962e-02 0.000000000000e+00 0.000000000000e+00 -9.059254421084e-02 0.000000000000e+00 0.000000000000e+00 -9.326795394998e-02 0.000000000000e+00 0.000000000000e+00 -9.594337061241e-02 0.000000000000e+00 0.000000000000e+00 -9.861879413790e-02 0.000000000000e+00 0.000000000000e+00 -1.012942244515e-01 0.000000000000e+00 0.000000000000e+00 -1.039696614648e-01 0.000000000000e+00 0.000000000000e+00 -1.066451050775e-01 0.000000000000e+00 0.000000000000e+00 -1.093205551801e-01 0.000000000000e+00 0.000000000000e+00 -1.119960116537e-01 0.000000000000e+00 0.000000000000e+00 -1.146714743712e-01 0.000000000000e+00 0.000000000000e+00 -1.173469431973e-01 0.000000000000e+00 0.000000000000e+00 -1.200224179874e-01 0.000000000000e+00 0.000000000000e+00 -1.226978985870e-01 0.000000000000e+00 0.000000000000e+00 -1.253733848328e-01 0.000000000000e+00 0.000000000000e+00 -1.280488765476e-01 3.068404926758e-08 0.000000000000e+00 -1.280488755157e-01 6.119911343884e-08 0.000000000000e+00 -1.280488724305e-01 9.137847512021e-08 0.000000000000e+00 -1.280488673130e-01 1.210586053986e-07 0.000000000000e+00 -1.280488602077e-01 1.500809330276e-07 0.000000000000e+00 -1.280488511756e-01 1.782940737570e-07 0.000000000000e+00 -1.280488402926e-01 2.055561327948e-07 0.000000000000e+00 -1.280488276520e-01 2.317360459848e-07 0.000000000000e+00 -1.280488133616e-01 2.567157278807e-07 0.000000000000e+00 -1.280487975465e-01 2.803952397312e-07 0.000000000000e+00 -1.280487803455e-01 3.026933343428e-07 0.000000000000e+00 -1.280487619096e-01 3.235522529226e-07 0.000000000000e+00 -1.280487424023e-01 3.429400345000e-07 0.000000000000e+00 -1.280487219930e-01 3.608543976570e-07 0.000000000000e+00 -1.280487008562e-01 3.773268856263e-07 0.000000000000e+00 -1.280486791635e-01 3.924236986747e-07 0.000000000000e+00 -1.280486570789e-01 4.062491446525e-07 0.000000000000e+00 -1.280486347494e-01 4.189434762566e-07 0.000000000000e+00 -1.280486122944e-01 4.306821871693e-07 0.000000000000e+00 -1.280485897961e-01 4.416694785533e-07 0.000000000000e+00 -1.280485672831e-01 4.521260606812e-07 0.000000000000e+00 -1.280485447203e-01 4.622764741124e-07 0.000000000000e+00 -1.280485219949e-01 4.723235546609e-07 0.000000000000e+00 -1.280484989063e-01 4.824219297677e-07 0.000000000000e+00 -1.280484751656e-01 4.926442569113e-07 0.000000000000e+00 -1.280484503979e-01 5.029452058415e-07 0.000000000000e+00 -1.280484241624e-01 5.131305951303e-07 0.000000000000e+00 -1.280483959849e-01 5.228323890895e-07 0.000000000000e+00 -1.280483654088e-01 5.315077832905e-07 0.000000000000e+00 -1.280483320579e-01 5.384604879667e-07 0.000000000000e+00 -1.280482956993e-01 5.428918204171e-07 0.000000000000e+00 -1.280482563011e-01 5.439674398936e-07 0.000000000000e+00 -1.280482140590e-01 5.408901504914e-07 0.000000000000e+00 -1.280481694053e-01 5.329746242378e-07 0.000000000000e+00 -1.280481229854e-01 5.197048759121e-07 0.000000000000e+00 -1.280480756131e-01 5.007746270545e-07 0.000000000000e+00 -1.280480282099e-01 4.760986537126e-07 0.000000000000e+00 -1.280479817333e-01 4.458009670672e-07 0.000000000000e+00 -1.280479371179e-01 4.101876365706e-07 0.000000000000e+00 -1.280478952222e-01 3.697043064808e-07 0.000000000000e+00 -1.280478567952e-01 3.248950618674e-07 0.000000000000e+00 -1.280478224636e-01 2.763641007799e-07 0.000000000000e+00 -1.280477927268e-01 2.247444007028e-07 0.000000000000e+00 -1.280477679671e-01 1.706762517853e-07 0.000000000000e+00 -1.280477484636e-01 1.147885819227e-07 0.000000000000e+00 -1.280477344093e-01 5.769473826567e-08 0.000000000000e+00 -1.280477259309e-01 1.809071604982e-08 0.000000000000e+00 -8.700029695899e-02 3.528927759060e-08 0.000000000000e+00 -1.262493699951e-01 1.939315688523e-08 0.000000000000e+00 -1.262867566122e-01 2.522452342378e-08 0.000000000000e+00 -1.014476517138e-01 3.908341873056e-07 0.000000000000e+00 -1.018363973209e-01 5.668506692775e-08 0.000000000000e+00 -1.018761730923e-01 7.722006644989e-08 0.000000000000e+00 -1.258965896330e-01 2.296505937037e-08 0.000000000000e+00 -1.240996613455e-01 2.163747864396e-08 0.000000000000e+00 -8.917662615399e-02 4.016602433172e-08 0.000000000000e+00 -8.742384730728e-02 4.292709001903e-08 0.000000000000e+00 -1.258557488775e-01 4.089491246950e-07 0.000000000000e+00 -1.017087763232e-01 4.078954889354e-08 0.000000000000e+00 -1.240474411775e-01 3.195803888998e-08 0.000000000000e+00 -1.037444591993e-01 3.869156892303e-07 0.000000000000e+00 -1.042402911509e-01 3.987037247970e-07 0.000000000000e+00 -1.034596208173e-01 4.229040697094e-07 0.000000000000e+00 -1.018410632451e-01 4.087981251464e-07 0.000000000000e+00 -1.039461146285e-01 4.286158184719e-07 0.000000000000e+00 -1.019399526266e-01 4.235112985662e-07 0.000000000000e+00 -1.019795647719e-01 4.080516480734e-07 0.000000000000e+00 -1.019998925474e-01 3.843385820732e-07 0.000000000000e+00 -1.020168946803e-01 3.546668306980e-07 0.000000000000e+00 -1.020309130736e-01 3.210159716760e-07 0.000000000000e+00 -1.020303840254e-01 2.850120915166e-07 0.000000000000e+00 -1.020024707936e-01 2.479127710694e-07 0.000000000000e+00 -1.019548729153e-01 2.104901262948e-07 0.000000000000e+00 -1.019166065581e-01 1.729600863385e-07 0.000000000000e+00 -1.019173827126e-01 1.349655460762e-07 0.000000000000e+00 -1.019730491216e-01 9.564918554287e-08 0.000000000000e+00 -1.020515416336e-01 3.880067880715e-07 0.000000000000e+00 -1.068611150066e-01 3.978329805562e-07 0.000000000000e+00 -1.055797992135e-01 3.936701970778e-07 0.000000000000e+00 -1.097922976319e-01 4.012219603231e-07 0.000000000000e+00 -1.125179654777e-01 7.412133266165e-08 0.000000000000e+00 -1.048321271515e-01 1.278967976140e-07 0.000000000000e+00 -1.256547125237e-01 1.800108302761e-07 0.000000000000e+00 -1.255786815099e-01 2.304013408985e-07 0.000000000000e+00 -1.256007263957e-01 2.776241766190e-07 0.000000000000e+00 -1.256410798000e-01 3.212519281541e-07 0.000000000000e+00 -1.256736967810e-01 3.609664086910e-07 0.000000000000e+00 -1.256937612868e-01 3.964205058336e-07 0.000000000000e+00 -1.257026608001e-01 4.272809942522e-07 0.000000000000e+00 -1.257037608428e-01 4.532823145198e-07 0.000000000000e+00 -1.257009700564e-01 4.742657888691e-07 0.000000000000e+00 -1.256974101088e-01 4.902162672771e-07 0.000000000000e+00 -1.256947759097e-01 5.012930616688e-07 0.000000000000e+00 -1.256938059773e-01 5.078381235456e-07 0.000000000000e+00 -1.256952092952e-01 5.103523169000e-07 0.000000000000e+00 -1.256998354837e-01 5.094392113045e-07 0.000000000000e+00 -1.257073489609e-01 5.057427974353e-07 0.000000000000e+00 -1.257149088530e-01 4.999075177179e-07 0.000000000000e+00 -1.257185063700e-01 4.925508841688e-07 0.000000000000e+00 -1.257162949247e-01 4.842203806930e-07 0.000000000000e+00 -1.257099598769e-01 4.753406489087e-07 0.000000000000e+00 -1.257027203543e-01 4.661845665982e-07 0.000000000000e+00 -1.256968251141e-01 4.568811971740e-07 0.000000000000e+00 -1.256929284037e-01 4.474427852091e-07 0.000000000000e+00 -1.256907436477e-01 4.377950072772e-07 0.000000000000e+00 -1.256896976757e-01 4.278057021355e-07 0.000000000000e+00 -1.256892701638e-01 4.173120348470e-07 0.000000000000e+00 -1.256891199368e-01 4.061404628252e-07 0.000000000000e+00 -1.256890764453e-01 3.941220452612e-07 0.000000000000e+00 -1.256890734903e-01 3.811044276852e-07 0.000000000000e+00 -1.256890879723e-01 3.669588598454e-07 0.000000000000e+00 -1.256891080564e-01 3.515850840307e-07 0.000000000000e+00 -1.256891270814e-01 3.349130464693e-07 0.000000000000e+00 -1.256891483837e-01 3.169025988416e-07 0.000000000000e+00 -1.256891873530e-01 2.975427091058e-07 0.000000000000e+00 -1.256892810313e-01 2.768498645543e-07 0.000000000000e+00 -1.256895531129e-01 2.548658487605e-07 0.000000000000e+00 -1.256903817672e-01 2.316574275929e-07 0.000000000000e+00 -1.256926405659e-01 2.073202990537e-07 0.000000000000e+00 -1.256977585010e-01 1.819833146509e-07 0.000000000000e+00 -1.257069231569e-01 1.558034457576e-07 0.000000000000e+00 -1.257186972675e-01 1.288726030510e-07 0.000000000000e+00 -1.257215850594e-01 1.010147383652e-07 0.000000000000e+00 -1.256942180398e-01 7.179166272308e-08 0.000000000000e+00 -1.256535968465e-01 2.372116370923e-08 0.000000000000e+00 -1.213842770090e-01 2.215322197905e-08 0.000000000000e+00 -1.186223075570e-01 2.091812025984e-08 0.000000000000e+00 -1.159419899466e-01 2.019206389137e-08 0.000000000000e+00 -1.132885089145e-01 1.982751703295e-08 0.000000000000e+00 -1.106336438341e-01 1.970297418923e-08 0.000000000000e+00 -1.079696994161e-01 1.974099216314e-08 0.000000000000e+00 -1.052969921124e-01 1.988961056438e-08 0.000000000000e+00 -1.026203655888e-01 2.014240404626e-08 0.000000000000e+00 -9.994807285396e-02 2.058906436776e-08 0.000000000000e+00 -9.728442421853e-02 2.142995814318e-08 0.000000000000e+00 -9.461058478775e-02 2.260821246189e-08 0.000000000000e+00 -9.187011670331e-02 6.730487435277e-08 0.000000000000e+00 -8.762507916668e-02 9.486816991040e-08 0.000000000000e+00 -8.760175958396e-02 1.214486379961e-07 0.000000000000e+00 -8.760069822117e-02 1.474969453138e-07 0.000000000000e+00 -8.762640752445e-02 1.731250490766e-07 0.000000000000e+00 -8.764711319027e-02 1.981714198608e-07 0.000000000000e+00 -8.764615499195e-02 2.224025720307e-07 0.000000000000e+00 -8.762930120342e-02 2.456460258483e-07 0.000000000000e+00 -8.761152505893e-02 2.678145278101e-07 0.000000000000e+00 -8.760164724861e-02 2.888515957121e-07 0.000000000000e+00 -8.759951342693e-02 3.086842131933e-07 0.000000000000e+00 -8.760135319277e-02 3.272158945646e-07 0.000000000000e+00 -8.760409227930e-02 3.443392113326e-07 0.000000000000e+00 -8.760626717727e-02 3.599468007497e-07 0.000000000000e+00 -8.760742081743e-02 3.739354936759e-07 0.000000000000e+00 -8.760757155447e-02 3.862052997146e-07 0.000000000000e+00 -8.760698850586e-02 3.966590728273e-07 0.000000000000e+00 -8.760606767998e-02 4.052042689920e-07 0.000000000000e+00 -8.760525797177e-02 4.117568471997e-07 0.000000000000e+00 -8.760500628347e-02 4.162518776386e-07 0.000000000000e+00 -8.760518727735e-02 4.186630978643e-07 0.000000000000e+00 -8.760411554554e-02 4.189856784275e-07 0.000000000000e+00 -8.760177817040e-02 4.171068894638e-07 0.000000000000e+00 -8.761082018188e-02 4.126413041536e-07 0.000000000000e+00 -8.766357821083e-02 4.051333935316e-07 0.000000000000e+00 -8.779090914653e-02 3.951170160504e-07 0.000000000000e+00 -8.797575968548e-02 3.886116298227e-07 0.000000000000e+00 -8.798353795573e-02 3.524157002702e-07 0.000000000000e+00 -9.108400992039e-02 3.391424086503e-07 0.000000000000e+00 -9.433487338951e-02 3.387641796280e-07 0.000000000000e+00 -9.692202361023e-02 3.406375224982e-07 0.000000000000e+00 -9.929176408116e-02 3.435147931807e-07 0.000000000000e+00 -1.017424400489e-01 3.490130965172e-07 0.000000000000e+00 -1.043699435391e-01 3.575254832887e-07 0.000000000000e+00 -1.070486653917e-01 3.682466289662e-07 0.000000000000e+00 -1.096247815676e-01 3.810378808387e-07 0.000000000000e+00 -1.122319517124e-01 3.654549406771e-07 0.000000000000e+00 -9.048005674395e-02 3.411649542906e-07 0.000000000000e+00 -9.332201063947e-02 3.332938100247e-07 0.000000000000e+00 -9.599943704019e-02 3.338641452570e-07 0.000000000000e+00 -9.802980275673e-02 3.774128833114e-07 0.000000000000e+00 -9.011702662915e-02 3.855040913520e-07 0.000000000000e+00 -8.995798718891e-02 3.902342907235e-07 0.000000000000e+00 -8.993777030796e-02 3.342922359214e-07 0.000000000000e+00 -9.998340282286e-02 3.926433139116e-07 0.000000000000e+00 -8.995185844773e-02 3.930372491184e-07 0.000000000000e+00 -8.995603290383e-02 3.913160443549e-07 0.000000000000e+00 -8.995345526512e-02 3.874111036338e-07 0.000000000000e+00 -8.995351515026e-02 3.813738240171e-07 0.000000000000e+00 -8.995651977207e-02 3.732945717807e-07 0.000000000000e+00 -8.996029289271e-02 3.632715756026e-07 0.000000000000e+00 -8.996345922798e-02 3.514081169621e-07 0.000000000000e+00 -8.996515635694e-02 3.378112779068e-07 0.000000000000e+00 -8.996469090011e-02 3.225923611684e-07 0.000000000000e+00 -8.996165489509e-02 3.058693021780e-07 0.000000000000e+00 -8.995630235029e-02 2.877667084121e-07 0.000000000000e+00 -8.995040694740e-02 2.684024594295e-07 0.000000000000e+00 -8.994901960341e-02 2.478515143583e-07 0.000000000000e+00 -8.996191279840e-02 2.261133596106e-07 0.000000000000e+00 -8.999869943035e-02 2.031602012708e-07 0.000000000000e+00 -9.005305654061e-02 1.791148845231e-07 0.000000000000e+00 -9.008884123277e-02 1.543739817098e-07 0.000000000000e+00 -9.006367394759e-02 1.294245138953e-07 0.000000000000e+00 -8.998371582849e-02 1.044508038847e-07 0.000000000000e+00 -8.992004038163e-02 7.870409146074e-08 0.000000000000e+00 -8.998430283575e-02 4.876682941491e-08 0.000000000000e+00 -9.025549946912e-02 4.500633453763e-08 0.000000000000e+00 -1.212515328345e-01 4.435797147620e-08 0.000000000000e+00 -1.182115359720e-01 4.027106899712e-08 0.000000000000e+00 -1.152100129631e-01 3.745040359655e-08 0.000000000000e+00 -1.123392843702e-01 3.619291418417e-08 0.000000000000e+00 -1.094991555706e-01 3.570436117195e-08 0.000000000000e+00 -1.065936730221e-01 8.776457685332e-08 0.000000000000e+00 -1.233224821661e-01 1.394593731039e-07 0.000000000000e+00 -1.230211124340e-01 1.905531742044e-07 0.000000000000e+00 -1.230826775624e-01 2.374242293643e-07 0.000000000000e+00 -1.231872425335e-01 2.804092253766e-07 0.000000000000e+00 -1.232714770390e-01 3.196671127192e-07 0.000000000000e+00 -1.233274811727e-01 3.550732731237e-07 0.000000000000e+00 -1.233578803614e-01 3.863915540222e-07 0.000000000000e+00 -1.233675562257e-01 4.133899936932e-07 0.000000000000e+00 -1.233641575993e-01 4.358845254875e-07 0.000000000000e+00 -1.233558335686e-01 4.537772605138e-07 0.000000000000e+00 -1.233482158763e-01 4.671092220138e-07 0.000000000000e+00 -1.233441547798e-01 4.760959064023e-07 0.000000000000e+00 -1.233455678459e-01 4.811273208702e-07 0.000000000000e+00 -1.233551889897e-01 4.827177116703e-07 0.000000000000e+00 -1.233748444341e-01 4.814112817318e-07 0.000000000000e+00 -1.233997788852e-01 4.777254336264e-07 0.000000000000e+00 -1.234176049320e-01 4.721806576876e-07 0.000000000000e+00 -1.234179413225e-01 4.653231196351e-07 0.000000000000e+00 -1.234019794432e-01 4.576528196797e-07 0.000000000000e+00 -1.233796114869e-01 4.495264632449e-07 0.000000000000e+00 -1.233596778414e-01 4.411312213467e-07 0.000000000000e+00 -1.233455912542e-01 4.325187154093e-07 0.000000000000e+00 -1.233371229971e-01 4.236467759807e-07 0.000000000000e+00 -1.233327340337e-01 4.144126376304e-07 0.000000000000e+00 -1.233307518521e-01 4.046808607276e-07 0.000000000000e+00 -1.233299439999e-01 3.943039634631e-07 0.000000000000e+00 -1.233296310935e-01 3.831353388642e-07 0.000000000000e+00 -1.233295217812e-01 3.710398755917e-07 0.000000000000e+00 -1.233295063429e-01 3.579008925329e-07 0.000000000000e+00 -1.233295300941e-01 3.436242879834e-07 0.000000000000e+00 -1.233295538851e-01 3.281415760529e-07 0.000000000000e+00 -1.233295624494e-01 3.114101784120e-07 0.000000000000e+00 -1.233295749289e-01 2.934128032363e-07 0.000000000000e+00 -1.233296574249e-01 2.741567659013e-07 0.000000000000e+00 -1.233300101998e-01 2.536733555919e-07 0.000000000000e+00 -1.233311534381e-01 2.320166456832e-07 0.000000000000e+00 -1.233341329414e-01 2.092657522714e-07 0.000000000000e+00 -1.233408371980e-01 1.855367475826e-07 0.000000000000e+00 -1.233542227272e-01 1.610007439452e-07 0.000000000000e+00 -1.233764256771e-01 1.359424591755e-07 0.000000000000e+00 -1.234063513245e-01 1.103962547901e-07 0.000000000000e+00 -1.234010027451e-01 8.341157538896e-08 0.000000000000e+00 -1.232738694422e-01 4.162214315701e-07 0.000000000000e+00 -1.042836625139e-01 4.063134916819e-07 0.000000000000e+00 -1.068249822192e-01 1.188447467762e-07 0.000000000000e+00 -1.044438059993e-01 1.567710660838e-07 0.000000000000e+00 -1.042347751384e-01 1.929906589251e-07 0.000000000000e+00 -1.041821167265e-01 2.289634614892e-07 0.000000000000e+00 -1.042437063621e-01 2.649934146708e-07 0.000000000000e+00 -1.043655877070e-01 3.005185013803e-07 0.000000000000e+00 -1.044679338347e-01 3.341256292163e-07 0.000000000000e+00 -1.044923429349e-01 3.640643873260e-07 0.000000000000e+00 -1.044649490848e-01 3.887304222654e-07 0.000000000000e+00 -1.044307137928e-01 4.065635035857e-07 0.000000000000e+00 -1.044008625437e-01 4.160285024301e-07 0.000000000000e+00 -1.043672231386e-01 4.097042802115e-07 0.000000000000e+00 -1.068042381743e-01 5.158286598631e-08 0.000000000000e+00 -1.229849725715e-01 4.581010536195e-08 0.000000000000e+00 -1.198595544753e-01 7.087948870086e-08 0.000000000000e+00 -1.207496869148e-01 9.534807892414e-08 0.000000000000e+00 -1.211356827239e-01 4.247688158082e-08 0.000000000000e+00 -1.171619968477e-01 4.066626850872e-08 0.000000000000e+00 -1.145492530603e-01 3.974657269502e-08 0.000000000000e+00 -1.119302560265e-01 6.429177180436e-08 0.000000000000e+00 -1.182303418610e-01 8.505848461522e-08 0.000000000000e+00 -1.189893758002e-01 3.936087340774e-08 0.000000000000e+00 -1.092869232203e-01 6.113073999694e-08 0.000000000000e+00 -1.157507653006e-01 5.964453093583e-08 0.000000000000e+00 -1.132092064313e-01 5.893300030771e-08 0.000000000000e+00 -1.106003707346e-01 8.062156018371e-08 0.000000000000e+00 -1.168506733343e-01 3.933919714333e-08 0.000000000000e+00 -1.066207133068e-01 5.878171127689e-08 0.000000000000e+00 -1.079470655918e-01 3.955733660658e-08 0.000000000000e+00 -1.039386242399e-01 3.991903040527e-08 0.000000000000e+00 -1.012567347196e-01 4.045122144419e-08 0.000000000000e+00 -9.859916654701e-02 4.148084050743e-08 0.000000000000e+00 -9.597643694728e-02 4.387267868555e-08 0.000000000000e+00 -9.331564499049e-02 6.701725384089e-08 0.000000000000e+00 -9.239106176059e-02 6.192181573278e-08 0.000000000000e+00 -9.478634967597e-02 8.967966183502e-08 0.000000000000e+00 -9.211487158615e-02 7.892622120100e-08 0.000000000000e+00 -9.388903645146e-02 6.056004028520e-08 0.000000000000e+00 -9.725200103618e-02 7.952551418939e-08 0.000000000000e+00 -9.588574260276e-02 5.904751580937e-08 0.000000000000e+00 -1.052586088386e-01 5.952438033434e-08 0.000000000000e+00 -1.025499674975e-01 6.000551128325e-08 0.000000000000e+00 -9.985967248005e-02 7.993494850638e-08 0.000000000000e+00 -9.838822142356e-02 1.185629114638e-07 0.000000000000e+00 -1.211553405560e-01 1.042728334863e-07 0.000000000000e+00 -1.192269937527e-01 9.525373629104e-08 0.000000000000e+00 -1.177256532541e-01 1.421197408138e-07 0.000000000000e+00 -1.210564976567e-01 1.660105798501e-07 0.000000000000e+00 -1.210175083076e-01 1.892296155958e-07 0.000000000000e+00 -1.209933422392e-01 2.115819043980e-07 0.000000000000e+00 -1.209809884827e-01 2.329376209363e-07 0.000000000000e+00 -1.209742877289e-01 2.532167335522e-07 0.000000000000e+00 -1.209710768450e-01 2.723531376374e-07 0.000000000000e+00 -1.209700496410e-01 2.902975770699e-07 0.000000000000e+00 -1.209698930822e-01 3.070245452595e-07 0.000000000000e+00 -1.209699003243e-01 3.225315434834e-07 0.000000000000e+00 -1.209698933483e-01 3.368380896335e-07 0.000000000000e+00 -1.209698432095e-01 3.499864177523e-07 0.000000000000e+00 -1.209697591932e-01 3.620426662743e-07 0.000000000000e+00 -1.209697148593e-01 3.730964898495e-07 0.000000000000e+00 -1.209698349868e-01 3.832588987773e-07 0.000000000000e+00 -1.209702855470e-01 3.926594025106e-07 0.000000000000e+00 -1.209713938749e-01 4.014418746321e-07 0.000000000000e+00 -1.209740064982e-01 4.097579659165e-07 0.000000000000e+00 -1.209800441675e-01 4.177541007024e-07 0.000000000000e+00 -1.209927981851e-01 4.255461042773e-07 0.000000000000e+00 -1.210162474934e-01 4.331804893355e-07 0.000000000000e+00 -1.210533911342e-01 4.405840476556e-07 0.000000000000e+00 -1.211038082528e-01 4.474788792970e-07 0.000000000000e+00 -1.211557626252e-01 4.533366978865e-07 0.000000000000e+00 -1.211818611429e-01 4.575428487219e-07 0.000000000000e+00 -1.211604839300e-01 4.596342531517e-07 0.000000000000e+00 -1.211036837049e-01 4.592610713627e-07 0.000000000000e+00 -1.210472036550e-01 4.559588124450e-07 0.000000000000e+00 -1.210135492957e-01 4.491492945753e-07 0.000000000000e+00 -1.210010765920e-01 4.383429493259e-07 0.000000000000e+00 -1.210020095197e-01 4.232486231139e-07 0.000000000000e+00 -1.210120853087e-01 4.037796190805e-07 0.000000000000e+00 -1.210275460127e-01 3.800225654690e-07 0.000000000000e+00 -1.210412084733e-01 3.521598382990e-07 0.000000000000e+00 -1.210402274687e-01 3.203845765271e-07 0.000000000000e+00 -1.210095688999e-01 2.849066415416e-07 0.000000000000e+00 -1.209416741705e-01 2.459290914138e-07 0.000000000000e+00 -1.208334192745e-01 2.033251174438e-07 0.000000000000e+00 -1.206679152508e-01 1.123871851915e-07 0.000000000000e+00 -9.224699447725e-02 9.633071161304e-08 0.000000000000e+00 -9.426754884739e-02 1.362113200115e-07 0.000000000000e+00 -9.247036363844e-02 1.607636437878e-07 0.000000000000e+00 -9.260593292096e-02 1.850929435738e-07 0.000000000000e+00 -9.256726943781e-02 2.081656657166e-07 0.000000000000e+00 -9.243921181037e-02 2.296451750750e-07 0.000000000000e+00 -9.234036540078e-02 2.497619891183e-07 0.000000000000e+00 -9.230094582887e-02 2.687136138123e-07 0.000000000000e+00 -9.229921909387e-02 2.864890391834e-07 0.000000000000e+00 -9.230987152487e-02 3.029545051839e-07 0.000000000000e+00 -9.232090763251e-02 3.179592751464e-07 0.000000000000e+00 -9.232817385723e-02 3.313681067775e-07 0.000000000000e+00 -9.233074811796e-02 3.430609820557e-07 0.000000000000e+00 -9.232908425129e-02 3.529282265510e-07 0.000000000000e+00 -9.232406394960e-02 3.608689791454e-07 0.000000000000e+00 -9.231648671354e-02 3.667923843450e-07 0.000000000000e+00 -9.230747176171e-02 3.706107984181e-07 0.000000000000e+00 -9.230097393788e-02 3.722224215805e-07 0.000000000000e+00 -9.230673036039e-02 3.716174507312e-07 0.000000000000e+00 -9.232419090292e-02 3.692538313339e-07 0.000000000000e+00 -9.230296310148e-02 3.656080883874e-07 0.000000000000e+00 -9.222476588644e-02 3.601383361679e-07 0.000000000000e+00 -9.222320579420e-02 3.509058937689e-07 0.000000000000e+00 -9.261644404396e-02 9.936588803069e-08 0.000000000000e+00 -9.672811027400e-02 1.241106284519e-07 0.000000000000e+00 -1.186989314544e-01 1.076176799544e-07 0.000000000000e+00 -1.176472363590e-01 1.558606135164e-07 0.000000000000e+00 -1.204176718760e-01 9.777867667746e-08 0.000000000000e+00 -1.200543934547e-01 8.395297623021e-08 0.000000000000e+00 -1.165783346327e-01 1.305243748028e-07 0.000000000000e+00 -1.175754250404e-01 1.756589460622e-07 0.000000000000e+00 -1.180914079047e-01 7.610347518191e-08 0.000000000000e+00 -1.136541920759e-01 7.223861254980e-08 0.000000000000e+00 -1.108891842609e-01 7.180503722601e-08 0.000000000000e+00 -1.080785425749e-01 1.079068300342e-07 0.000000000000e+00 -1.070375532276e-01 1.431984858762e-07 0.000000000000e+00 -1.065234392483e-01 1.047065776913e-07 0.000000000000e+00 -1.096223630542e-01 1.347718388900e-07 0.000000000000e+00 -1.087207780825e-01 1.074119747359e-07 0.000000000000e+00 -1.121495763363e-01 1.157164517808e-07 0.000000000000e+00 -1.147669169028e-01 1.343300236964e-07 0.000000000000e+00 -1.108597009818e-01 1.417560733061e-07 0.000000000000e+00 -1.131057481604e-01 1.552921565383e-07 0.000000000000e+00 -1.155342879086e-01 2.170573291442e-07 0.000000000000e+00 -1.183707749550e-01 1.935703383725e-07 0.000000000000e+00 -1.159586075163e-01 2.555263543892e-07 0.000000000000e+00 -1.185292217855e-01 2.305063389439e-07 0.000000000000e+00 -1.161084297019e-01 2.911503380568e-07 0.000000000000e+00 -1.186454392257e-01 3.234368500696e-07 0.000000000000e+00 -1.187177527115e-01 2.663156446217e-07 0.000000000000e+00 -1.162346852914e-01 2.993811276227e-07 0.000000000000e+00 -1.164024980381e-01 1.769471132448e-07 0.000000000000e+00 -1.063476473266e-01 1.637750478623e-07 0.000000000000e+00 -1.083382318598e-01 1.548996165731e-07 0.000000000000e+00 -1.099318559563e-01 1.628123698492e-07 0.000000000000e+00 -1.116179235743e-01 1.755258904786e-07 0.000000000000e+00 -1.136913616838e-01 2.106537499016e-07 0.000000000000e+00 -1.064041315044e-01 2.449569925362e-07 0.000000000000e+00 -1.066089920604e-01 2.799933146125e-07 0.000000000000e+00 -1.068900105938e-01 3.144295488204e-07 0.000000000000e+00 -1.070101650515e-01 3.455078814112e-07 0.000000000000e+00 -1.069438191216e-01 3.714011365580e-07 0.000000000000e+00 -1.068785583645e-01 3.913639880912e-07 0.000000000000e+00 -1.068333859122e-01 4.044192771143e-07 0.000000000000e+00 -1.068094062462e-01 3.521064253346e-07 0.000000000000e+00 -1.187323857788e-01 3.286659432820e-07 0.000000000000e+00 -1.164501610087e-01 3.770493064231e-07 0.000000000000e+00 -1.187134711974e-01 3.979971681278e-07 0.000000000000e+00 -1.186870483945e-01 4.146836459965e-07 0.000000000000e+00 -1.186671192258e-01 4.270243543306e-07 0.000000000000e+00 -1.186600776518e-01 4.351797291534e-07 0.000000000000e+00 -1.186701303767e-01 4.395656834356e-07 0.000000000000e+00 -1.187057615015e-01 4.409217501002e-07 0.000000000000e+00 -1.187944336555e-01 4.399759025295e-07 0.000000000000e+00 -1.189318477410e-01 4.368970724136e-07 0.000000000000e+00 -1.190320407124e-01 4.317330662636e-07 0.000000000000e+00 -1.190183123251e-01 4.251034250621e-07 0.000000000000e+00 -1.189160301174e-01 4.179209765469e-07 0.000000000000e+00 -1.188049830740e-01 4.106970073365e-07 0.000000000000e+00 -1.187228161320e-01 4.035226914998e-07 0.000000000000e+00 -1.186680371546e-01 3.963373459335e-07 0.000000000000e+00 -1.186366917881e-01 3.889782654790e-07 0.000000000000e+00 -1.186213335858e-01 3.812445585696e-07 0.000000000000e+00 -1.186143698857e-01 3.729447869406e-07 0.000000000000e+00 -1.186111094099e-01 3.639125590030e-07 0.000000000000e+00 -1.186095639587e-01 3.540074491789e-07 0.000000000000e+00 -1.186090028819e-01 3.431136283825e-07 0.000000000000e+00 -1.186090224456e-01 3.311396689848e-07 0.000000000000e+00 -1.186092764199e-01 3.180196876869e-07 0.000000000000e+00 -1.186095394498e-01 3.037124426208e-07 0.000000000000e+00 -1.186097704080e-01 2.881990792924e-07 0.000000000000e+00 -1.186099154347e-01 2.714795098334e-07 0.000000000000e+00 -1.186097187360e-01 2.535715314417e-07 0.000000000000e+00 -1.186094945929e-01 2.345215624485e-07 0.000000000000e+00 -1.186116659445e-01 2.144077543445e-07 0.000000000000e+00 -1.186191918245e-01 1.932967997673e-07 0.000000000000e+00 -1.186305872477e-01 1.712166238518e-07 0.000000000000e+00 -1.186459224041e-01 1.483382592670e-07 0.000000000000e+00 -1.186885069266e-01 3.546958217491e-07 0.000000000000e+00 -1.164192078921e-01 1.938756820732e-07 0.000000000000e+00 -1.083728965987e-01 1.790386492871e-07 0.000000000000e+00 -1.101072692606e-01 1.917414523936e-07 0.000000000000e+00 -1.119853148871e-01 2.086736099053e-07 0.000000000000e+00 -1.139217212794e-01 2.437175982876e-07 0.000000000000e+00 -1.135902537713e-01 2.798186666716e-07 0.000000000000e+00 -1.140840725757e-01 3.089706828968e-07 0.000000000000e+00 -1.142415434314e-01 3.355503079604e-07 0.000000000000e+00 -1.141596118227e-01 3.772002177376e-07 0.000000000000e+00 -1.163737447612e-01 3.955909517516e-07 0.000000000000e+00 -1.163384216387e-01 4.095127128283e-07 0.000000000000e+00 -1.163223456610e-01 4.189295023978e-07 0.000000000000e+00 -1.163296246445e-01 4.241208854594e-07 0.000000000000e+00 -1.163608940067e-01 4.256265367775e-07 0.000000000000e+00 -1.164208481063e-01 4.250490366922e-07 0.000000000000e+00 -1.166504568468e-01 4.231152774706e-07 0.000000000000e+00 -1.169568397779e-01 4.188280714455e-07 0.000000000000e+00 -1.170536878776e-01 4.120507289233e-07 0.000000000000e+00 -1.168747279046e-01 4.043190691065e-07 0.000000000000e+00 -1.166265469743e-01 3.970507998374e-07 0.000000000000e+00 -1.164732288245e-01 3.901630709604e-07 0.000000000000e+00 -1.163646288208e-01 3.836032693781e-07 0.000000000000e+00 -1.163002157432e-01 3.771539781425e-07 0.000000000000e+00 -1.162698819639e-01 3.705064684020e-07 0.000000000000e+00 -1.162569512382e-01 3.633841229035e-07 0.000000000000e+00 -1.162505764814e-01 3.555725154384e-07 0.000000000000e+00 -1.162470471597e-01 3.469036840118e-07 0.000000000000e+00 -1.162454931774e-01 3.372447775967e-07 0.000000000000e+00 -1.162453660788e-01 3.264942252894e-07 0.000000000000e+00 -1.162459792771e-01 3.145812038501e-07 0.000000000000e+00 -1.162467932744e-01 3.014640254221e-07 0.000000000000e+00 -1.162477171117e-01 2.871273925590e-07 0.000000000000e+00 -1.162488536792e-01 2.715756264341e-07 0.000000000000e+00 -1.162494780715e-01 2.548198418972e-07 0.000000000000e+00 -1.162479018118e-01 2.368817525693e-07 0.000000000000e+00 -1.162453907918e-01 2.178493968879e-07 0.000000000000e+00 -1.162515639464e-01 1.978771058093e-07 0.000000000000e+00 -1.162715333611e-01 1.769694575461e-07 0.000000000000e+00 -1.162824990072e-01 1.548446233426e-07 0.000000000000e+00 -1.162736203113e-01 2.073556749828e-07 0.000000000000e+00 -1.103705282723e-01 2.175752144624e-07 0.000000000000e+00 -1.121620344615e-01 3.598148303286e-07 0.000000000000e+00 -1.140730328659e-01 7.931587665506e-08 0.000000000000e+00 -1.144887026710e-01 7.836214069451e-08 0.000000000000e+00 -1.119220675238e-01 7.801949841739e-08 0.000000000000e+00 -1.092867057797e-01 7.830301629551e-08 0.000000000000e+00 -1.066004220386e-01 9.892361481557e-08 0.000000000000e+00 -1.159063590420e-01 7.904548829995e-08 0.000000000000e+00 -1.038616532399e-01 7.975016461967e-08 0.000000000000e+00 -1.010945246857e-01 1.004727037696e-07 0.000000000000e+00 -9.949570671076e-02 2.253901289939e-07 0.000000000000e+00 -1.086315972272e-01 2.366557182523e-07 0.000000000000e+00 -1.109184581724e-01 2.677839367892e-07 0.000000000000e+00 -1.116399236355e-01 2.936987780502e-07 0.000000000000e+00 -1.123474269987e-01 3.177573798269e-07 0.000000000000e+00 -1.119675816080e-01 2.584121795768e-07 0.000000000000e+00 -1.090805491419e-01 2.946841664790e-07 0.000000000000e+00 -1.097745018280e-01 3.291950411474e-07 0.000000000000e+00 -1.094714466209e-01 3.444610572532e-07 0.000000000000e+00 -1.117832384157e-01 3.564266239798e-07 0.000000000000e+00 -1.093375812995e-01 3.676416265876e-07 0.000000000000e+00 -1.116826459062e-01 3.802711198053e-07 0.000000000000e+00 -1.140118665309e-01 3.782570567839e-07 0.000000000000e+00 -1.092638464097e-01 3.942471992177e-07 0.000000000000e+00 -1.092284326933e-01 3.860549531846e-07 0.000000000000e+00 -1.116287527164e-01 3.961178978806e-07 0.000000000000e+00 -1.139807590673e-01 4.038209612227e-07 0.000000000000e+00 -1.092357379890e-01 3.990580113154e-07 0.000000000000e+00 -1.116153944768e-01 4.070336065771e-07 0.000000000000e+00 -1.139832969611e-01 4.131202205770e-07 0.000000000000e+00 -1.140224742800e-01 4.064411358107e-07 0.000000000000e+00 -1.116554323064e-01 4.067914311862e-07 0.000000000000e+00 -1.093284367636e-01 4.086568268850e-07 0.000000000000e+00 -1.117748832514e-01 4.148556828584e-07 0.000000000000e+00 -1.140762692509e-01 4.121390660988e-07 0.000000000000e+00 -1.140118165283e-01 4.116402236856e-07 0.000000000000e+00 -1.148688458903e-01 4.086705297197e-07 0.000000000000e+00 -1.152871044400e-01 4.029766489293e-07 0.000000000000e+00 -1.152344391501e-01 3.926419417955e-07 0.000000000000e+00 -1.144732255864e-01 3.850121123659e-07 0.000000000000e+00 -1.142757718670e-01 3.780169699270e-07 0.000000000000e+00 -1.140848181491e-01 3.717700245849e-07 0.000000000000e+00 -1.139608691650e-01 3.661175918652e-07 0.000000000000e+00 -1.139096279234e-01 3.605649918878e-07 0.000000000000e+00 -1.138938959047e-01 3.546675138307e-07 0.000000000000e+00 -1.138858199070e-01 3.481374048630e-07 0.000000000000e+00 -1.138795347268e-01 3.407698676500e-07 0.000000000000e+00 -1.138760023445e-01 3.324048046222e-07 0.000000000000e+00 -1.138753348140e-01 3.229215826146e-07 0.000000000000e+00 -1.138764722504e-01 3.122377689262e-07 0.000000000000e+00 -1.138782900431e-01 3.003061616269e-07 0.000000000000e+00 -1.138804526615e-01 2.871132782226e-07 0.000000000000e+00 -1.138835763935e-01 2.726781221612e-07 0.000000000000e+00 -1.138877826050e-01 2.570310258108e-07 0.000000000000e+00 -1.138892446441e-01 2.401649972176e-07 0.000000000000e+00 -1.138808432152e-01 2.220558697443e-07 0.000000000000e+00 -1.138682375554e-01 2.029390635995e-07 0.000000000000e+00 -1.138936705395e-01 1.832542420465e-07 0.000000000000e+00 -1.139568296349e-01 1.626701456609e-07 0.000000000000e+00 -1.139248175509e-01 4.070188889535e-07 0.000000000000e+00 -1.119111407759e-01 4.045149007128e-07 0.000000000000e+00 -1.097045748399e-01 3.982966519782e-07 0.000000000000e+00 -1.081657884126e-01 4.011093114118e-07 0.000000000000e+00 -1.102493003951e-01 4.027295535169e-07 0.000000000000e+00 -1.116942125994e-01 3.926426545094e-07 0.000000000000e+00 -1.139375471010e-01 3.748502787226e-07 0.000000000000e+00 -1.121719080002e-01 3.674356261942e-07 0.000000000000e+00 -1.104086285938e-01 3.563030642419e-07 0.000000000000e+00 -1.082144132410e-01 3.450422927197e-07 0.000000000000e+00 -1.054209359941e-01 3.374916923378e-07 0.000000000000e+00 -1.025385325229e-01 3.675219867928e-07 0.000000000000e+00 -1.118515658364e-01 3.596921023230e-07 0.000000000000e+00 -1.098017364348e-01 3.610302408677e-07 0.000000000000e+00 -1.115954538379e-01 3.559712704674e-07 0.000000000000e+00 -1.115105983620e-01 3.515608250556e-07 0.000000000000e+00 -1.115136503556e-01 3.469433062819e-07 0.000000000000e+00 -1.115138911556e-01 3.417362816575e-07 0.000000000000e+00 -1.115044235986e-01 3.357138419881e-07 0.000000000000e+00 -1.114969084876e-01 3.286854355303e-07 0.000000000000e+00 -1.114947643528e-01 3.205027998817e-07 0.000000000000e+00 -1.114964065810e-01 3.110655921342e-07 0.000000000000e+00 -1.114996816010e-01 3.003153477939e-07 0.000000000000e+00 -1.115035291645e-01 2.882317361524e-07 0.000000000000e+00 -1.115088061884e-01 2.748396968014e-07 0.000000000000e+00 -1.115180001187e-01 2.602236586186e-07 0.000000000000e+00 -1.115313689334e-01 2.444538577096e-07 0.000000000000e+00 -1.115335114235e-01 2.273910111534e-07 0.000000000000e+00 -1.114960600374e-01 2.086998101877e-07 0.000000000000e+00 -1.114375067581e-01 1.893723897757e-07 0.000000000000e+00 -1.115744239298e-01 1.709514648025e-07 0.000000000000e+00 -1.117954612301e-01 1.180576391174e-07 0.000000000000e+00 -9.474911507027e-02 1.219107090257e-07 0.000000000000e+00 -9.758909621869e-02 1.422392044168e-07 0.000000000000e+00 -9.521117413148e-02 1.677389857870e-07 0.000000000000e+00 -9.528353214602e-02 1.919501761509e-07 0.000000000000e+00 -9.498539971152e-02 2.134196363810e-07 0.000000000000e+00 -9.473691211810e-02 2.330005095862e-07 0.000000000000e+00 -9.463979656898e-02 2.514629389816e-07 0.000000000000e+00 -9.464016286372e-02 2.689701981400e-07 0.000000000000e+00 -9.466313223279e-02 2.853134550187e-07 0.000000000000e+00 -9.468455820992e-02 3.002772878792e-07 0.000000000000e+00 -9.469924451955e-02 3.136952040080e-07 0.000000000000e+00 -9.470615940680e-02 3.254352671432e-07 0.000000000000e+00 -9.470625030824e-02 3.353892261242e-07 0.000000000000e+00 -9.470073557323e-02 3.434656322393e-07 0.000000000000e+00 -9.469024852928e-02 3.495924154187e-07 0.000000000000e+00 -9.467449270140e-02 3.537187125490e-07 0.000000000000e+00 -9.465418391229e-02 3.557824653556e-07 0.000000000000e+00 -9.464042325033e-02 3.555764150001e-07 0.000000000000e+00 -9.467772734414e-02 3.531072943425e-07 0.000000000000e+00 -9.476896667832e-02 3.502297706495e-07 0.000000000000e+00 -9.463828916794e-02 3.475669837133e-07 0.000000000000e+00 -9.432381670931e-02 3.444254086709e-07 0.000000000000e+00 -9.413656771812e-02 3.351039468138e-07 0.000000000000e+00 -9.544665329853e-02 3.306710855041e-07 0.000000000000e+00 -9.796723598131e-02 1.328731858331e-07 0.000000000000e+00 -1.164444361949e-01 1.159326931809e-07 0.000000000000e+00 -1.166737561227e-01 1.383782455790e-07 0.000000000000e+00 -1.136619014991e-01 1.527179446495e-07 0.000000000000e+00 -1.115803671894e-01 3.306572278446e-07 0.000000000000e+00 -1.003462622112e-01 3.304377256135e-07 0.000000000000e+00 -9.801593012551e-02 3.363717330197e-07 0.000000000000e+00 -9.610060298447e-02 3.377959035581e-07 0.000000000000e+00 -9.665658663753e-02 3.319251150937e-07 0.000000000000e+00 -9.804829720413e-02 3.296206783233e-07 0.000000000000e+00 -1.002144626087e-01 1.491743318714e-07 0.000000000000e+00 -9.859596265229e-02 1.779695784430e-07 0.000000000000e+00 -9.777514064969e-02 1.998872614944e-07 0.000000000000e+00 -9.715368257645e-02 2.184185902023e-07 0.000000000000e+00 -9.690145615688e-02 2.359029612350e-07 0.000000000000e+00 -9.694909628642e-02 2.531386783299e-07 0.000000000000e+00 -9.701184285091e-02 2.695052533931e-07 0.000000000000e+00 -9.705165755851e-02 2.846060141086e-07 0.000000000000e+00 -9.707831848469e-02 2.982311554973e-07 0.000000000000e+00 -9.709165716007e-02 3.102244930162e-07 0.000000000000e+00 -9.709506501379e-02 3.204805490229e-07 0.000000000000e+00 -9.709094876790e-02 3.289210689051e-07 0.000000000000e+00 -9.708015779060e-02 3.354916767446e-07 0.000000000000e+00 -9.706143376328e-02 3.401750310155e-07 0.000000000000e+00 -9.703054245263e-02 3.430019641967e-07 0.000000000000e+00 -9.698187366325e-02 3.440062541680e-07 0.000000000000e+00 -9.693149214878e-02 3.424375049457e-07 0.000000000000e+00 -9.710862769070e-02 3.380662067731e-07 0.000000000000e+00 -9.758288346437e-02 3.314727620886e-07 0.000000000000e+00 -9.926929501677e-02 3.517427209358e-07 0.000000000000e+00 -1.091822633675e-01 3.457795176381e-07 0.000000000000e+00 -1.069796787173e-01 9.978347698373e-08 0.000000000000e+00 -1.023958734088e-01 1.223843737912e-07 0.000000000000e+00 -1.007711583167e-01 9.822682010160e-08 0.000000000000e+00 -1.052412969889e-01 9.714861969931e-08 0.000000000000e+00 -1.079768138006e-01 9.708128734471e-08 0.000000000000e+00 -1.106497214026e-01 9.766942509637e-08 0.000000000000e+00 -1.132825630607e-01 1.166002531989e-07 0.000000000000e+00 -1.146707767973e-01 1.164037141323e-07 0.000000000000e+00 -1.120533233519e-01 1.340054149351e-07 0.000000000000e+00 -1.106819662651e-01 1.155558386208e-07 0.000000000000e+00 -1.093651163828e-01 1.163551095808e-07 0.000000000000e+00 -1.066980388750e-01 1.331173662467e-07 0.000000000000e+00 -1.081170934486e-01 1.489158697392e-07 0.000000000000e+00 -1.093011413509e-01 1.622733550920e-07 0.000000000000e+00 -1.101097325790e-01 1.763213574581e-07 0.000000000000e+00 -1.096212974089e-01 1.193256308141e-07 0.000000000000e+00 -1.038910994661e-01 1.354998943437e-07 0.000000000000e+00 -1.055781842013e-01 1.491938147068e-07 0.000000000000e+00 -1.070630154792e-01 1.629437586040e-07 0.000000000000e+00 -1.082423331712e-01 1.954773292053e-07 0.000000000000e+00 -1.087355128275e-01 2.166052989588e-07 0.000000000000e+00 -1.090507503535e-01 2.338816633094e-07 0.000000000000e+00 -1.092003826654e-01 2.496005325381e-07 0.000000000000e+00 -1.091990409780e-01 2.644331079040e-07 0.000000000000e+00 -1.091552554746e-01 2.782003748587e-07 0.000000000000e+00 -1.091315711041e-01 2.906239825198e-07 0.000000000000e+00 -1.091202862702e-01 3.016267592525e-07 0.000000000000e+00 -1.091134619224e-01 3.112036277608e-07 0.000000000000e+00 -1.091075283791e-01 3.193876351289e-07 0.000000000000e+00 -1.091023449654e-01 3.262506037522e-07 0.000000000000e+00 -1.091001993142e-01 3.319159236481e-07 0.000000000000e+00 -1.091055323698e-01 3.365702167805e-07 0.000000000000e+00 -1.091233445570e-01 3.404289003275e-07 0.000000000000e+00 -1.091401247000e-01 3.436373578202e-07 0.000000000000e+00 -1.090929336136e-01 3.466571727828e-07 0.000000000000e+00 -1.089753734186e-01 1.443818159987e-07 0.000000000000e+00 -1.026518560250e-01 1.515149155405e-07 0.000000000000e+00 -1.050350267776e-01 1.638090795231e-07 0.000000000000e+00 -1.060896952831e-01 1.688769769229e-07 0.000000000000e+00 -1.009047876282e-01 1.652276829168e-07 0.000000000000e+00 -1.037839106132e-01 1.909333772756e-07 0.000000000000e+00 -9.975582240053e-02 2.072868271513e-07 0.000000000000e+00 -9.879953621853e-02 2.216007434401e-07 0.000000000000e+00 -9.915889492523e-02 1.777571713978e-07 0.000000000000e+00 -1.072589200328e-01 1.768986198504e-07 0.000000000000e+00 -1.051446610991e-01 1.864544750889e-07 0.000000000000e+00 -1.028750383518e-01 2.060583231174e-07 0.000000000000e+00 -1.010455762051e-01 1.918795674136e-07 0.000000000000e+00 -1.057134723518e-01 2.095446133546e-07 0.000000000000e+00 -1.064836507090e-01 2.065520680701e-07 0.000000000000e+00 -1.037825431205e-01 2.259196004247e-07 0.000000000000e+00 -1.069487715503e-01 2.221161386536e-07 0.000000000000e+00 -1.046730031983e-01 2.406469285181e-07 0.000000000000e+00 -1.069728115306e-01 2.337228539609e-07 0.000000000000e+00 -1.053147952132e-01 2.554725104695e-07 0.000000000000e+00 -1.067977577582e-01 2.699663366613e-07 0.000000000000e+00 -1.067454064485e-01 2.829961626016e-07 0.000000000000e+00 -1.067265812673e-01 2.944838937553e-07 0.000000000000e+00 -1.067174243518e-01 3.044310990623e-07 0.000000000000e+00 -1.067098490863e-01 3.128552996038e-07 0.000000000000e+00 -1.067015307168e-01 3.197981151966e-07 0.000000000000e+00 -1.066931485648e-01 3.253414885758e-07 0.000000000000e+00 -1.066883380509e-01 3.296309242463e-07 0.000000000000e+00 -1.066984372951e-01 3.329163507918e-07 0.000000000000e+00 -1.067540409171e-01 3.354562253420e-07 0.000000000000e+00 -1.068188245797e-01 3.369362333781e-07 0.000000000000e+00 -1.065788433668e-01 3.376201398002e-07 0.000000000000e+00 -1.058815289071e-01 3.341443653767e-07 0.000000000000e+00 -1.033745866504e-01 3.305749040131e-07 0.000000000000e+00 -1.022420964088e-01 3.318646458180e-07 0.000000000000e+00 -1.038345347676e-01 3.325134809604e-07 0.000000000000e+00 -1.048556361210e-01 3.310598658777e-07 0.000000000000e+00 -1.044713099509e-01 3.291806016255e-07 0.000000000000e+00 -1.042519684435e-01 3.262743645827e-07 0.000000000000e+00 -1.042494935245e-01 3.220202620831e-07 0.000000000000e+00 -1.042678955177e-01 3.162747667823e-07 0.000000000000e+00 -1.042843782240e-01 3.089547289881e-07 0.000000000000e+00 -1.042968972689e-01 3.000189753899e-07 0.000000000000e+00 -1.043057900607e-01 2.894490702691e-07 0.000000000000e+00 -1.043123161658e-01 2.772215428830e-07 0.000000000000e+00 -1.043194832409e-01 2.632139230181e-07 0.000000000000e+00 -1.043346243300e-01 2.465893107960e-07 0.000000000000e+00 -1.043784275417e-01 2.242952274558e-07 0.000000000000e+00 -1.019107630196e-01 2.337906930587e-07 0.000000000000e+00 -1.036058261700e-01 2.386225005299e-07 0.000000000000e+00 -9.936596942989e-02 2.426557532975e-07 0.000000000000e+00 -1.017576781047e-01 2.553132032236e-07 0.000000000000e+00 -9.941995365690e-02 2.583718014221e-07 0.000000000000e+00 -1.018747410744e-01 2.707380617818e-07 0.000000000000e+00 -9.946715781168e-02 2.731763984338e-07 0.000000000000e+00 -1.018968959548e-01 2.862989174175e-07 0.000000000000e+00 -1.019009785254e-01 2.977218837061e-07 0.000000000000e+00 -1.018990917103e-01 2.847879025312e-07 0.000000000000e+00 -9.948750439665e-02 2.972384797584e-07 0.000000000000e+00 -9.949378040740e-02 3.074430075066e-07 0.000000000000e+00 -1.018923422998e-01 3.079919376332e-07 0.000000000000e+00 -9.949175014364e-02 3.169929765038e-07 0.000000000000e+00 -9.948304285093e-02 3.242036828579e-07 0.000000000000e+00 -9.946652642984e-02 3.154502089491e-07 0.000000000000e+00 -1.018806219745e-01 3.217557058513e-07 0.000000000000e+00 -1.018602765664e-01 3.296183693984e-07 0.000000000000e+00 -9.943740188190e-02 3.332917463433e-07 0.000000000000e+00 -9.938195700649e-02 3.263966649407e-07 0.000000000000e+00 -1.018259808387e-01 3.294821226408e-07 0.000000000000e+00 -1.017570593866e-01 3.353929644510e-07 0.000000000000e+00 -9.925879356711e-02 3.365536329548e-07 0.000000000000e+00 -9.892846211577e-02 3.312042603460e-07 0.000000000000e+00 -1.015722199822e-01 3.308555805399e-07 0.000000000000e+00 -1.025637966957e-01 3.338142502022e-07 0.000000000000e+00 -9.977187544815e-02 3.310984809291e-07 0.000000000000e+00 -1.008772516395e-01 0.000000000000e+00 0.000000000000e+00 -9.674056308054e-02 0.000000000000e+00 0.000000000000e+00 -9.389001862484e-02 0.000000000000e+00 0.000000000000e+00 -9.103948532752e-02 0.000000000000e+00 0.000000000000e+00 -8.818896384843e-02 0.000000000000e+00 0.000000000000e+00 -8.533845462143e-02 0.000000000000e+00 0.000000000000e+00 -8.248795778669e-02 0.000000000000e+00 0.000000000000e+00 -7.963747313546e-02 0.000000000000e+00 0.000000000000e+00 -7.678700010438e-02 0.000000000000e+00 0.000000000000e+00 -7.393653780699e-02 0.000000000000e+00 0.000000000000e+00 -7.108608507383e-02 2.408860731966e-08 0.000000000000e+00 -7.108607115167e-02 4.797080720337e-08 0.000000000000e+00 -7.108605919777e-02 7.144530268046e-08 0.000000000000e+00 -7.108604914758e-02 9.435861382147e-08 0.000000000000e+00 -7.108604090208e-02 1.166392240077e-07 0.000000000000e+00 -7.108603435588e-02 1.383235773465e-07 0.000000000000e+00 -7.108602942538e-02 1.595962754201e-07 0.000000000000e+00 -7.108602608340e-02 1.808676067293e-07 0.000000000000e+00 -7.108602442907e-02 2.029197984949e-07 0.000000000000e+00 -7.108602477636e-02 2.271711619242e-07 0.000000000000e+00 -7.108602776013e-02 2.561276634073e-07 0.000000000000e+00 -7.108603441108e-02 2.942698478310e-07 0.000000000000e+00 -7.108604606981e-02 3.495076484386e-07 0.000000000000e+00 -7.108606339890e-02 4.321876456555e-07 0.000000000000e+00 -7.108608138872e-02 5.453685373475e-07 0.000000000000e+00 -7.108608373743e-02 5.699021472673e-07 0.000000000000e+00 -7.367738043702e-02 6.072015285962e-07 0.000000000000e+00 -7.626861831640e-02 5.892536979305e-07 0.000000000000e+00 -7.885970164245e-02 5.146420560860e-07 0.000000000000e+00 -8.145123153072e-02 5.615068198183e-07 0.000000000000e+00 -8.404257527515e-02 4.470617609715e-07 0.000000000000e+00 -8.663396546605e-02 4.053029355876e-07 0.000000000000e+00 -8.922555896337e-02 3.946098014432e-07 0.000000000000e+00 -9.181708351408e-02 3.866795230703e-07 0.000000000000e+00 -9.440857324724e-02 3.800164513977e-07 0.000000000000e+00 -9.700004920680e-02 2.392210347548e-08 0.000000000000e+00 -9.778946282294e-02 1.529469487502e-08 0.000000000000e+00 -7.292001313197e-02 4.568901170804e-07 0.000000000000e+00 -7.319154918265e-02 5.300131209139e-08 0.000000000000e+00 -9.743846187951e-02 3.397235233651e-08 0.000000000000e+00 -7.333232158052e-02 4.576046735997e-07 0.000000000000e+00 -7.541660473255e-02 1.866513225662e-08 0.000000000000e+00 -7.515582352652e-02 2.879699887126e-08 0.000000000000e+00 -9.558686377684e-02 3.703216722226e-07 0.000000000000e+00 -7.312311096063e-02 3.879484431395e-07 0.000000000000e+00 -7.475525748794e-02 4.411033208307e-07 0.000000000000e+00 -7.784587000484e-02 3.730335495651e-07 0.000000000000e+00 -7.675214150499e-02 5.619587869177e-07 0.000000000000e+00 -8.044702179684e-02 4.987866760395e-07 0.000000000000e+00 -8.310300997234e-02 5.426163240507e-07 0.000000000000e+00 -8.572170721509e-02 5.175611993653e-07 0.000000000000e+00 -8.824994797434e-02 4.670755769145e-07 0.000000000000e+00 -9.071956941313e-02 4.424316222179e-07 0.000000000000e+00 -9.329815281518e-02 4.258821815608e-07 0.000000000000e+00 -9.647481384559e-02 3.103869971733e-07 0.000000000000e+00 -7.332893704148e-02 3.346269521787e-07 0.000000000000e+00 -7.528710700029e-02 2.694075563665e-07 0.000000000000e+00 -7.351106345026e-02 2.389048340823e-07 0.000000000000e+00 -7.356041005913e-02 2.137319907803e-07 0.000000000000e+00 -7.352891546767e-02 1.911973881945e-07 0.000000000000e+00 -7.348936313833e-02 1.697295185016e-07 0.000000000000e+00 -7.345116506950e-02 1.486048078953e-07 0.000000000000e+00 -7.342078038042e-02 1.274855529843e-07 0.000000000000e+00 -7.343330321760e-02 1.058470443936e-07 0.000000000000e+00 -7.355343028809e-02 8.247603388314e-08 0.000000000000e+00 -7.376538213601e-02 5.757720364750e-08 0.000000000000e+00 -7.371020837386e-02 8.907963853937e-08 0.000000000000e+00 -9.720193106678e-02 1.274756917707e-07 0.000000000000e+00 -9.713341595409e-02 1.663873196450e-07 0.000000000000e+00 -9.716190178334e-02 2.053026169848e-07 0.000000000000e+00 -9.720412545488e-02 2.443541909825e-07 0.000000000000e+00 -9.723208229814e-02 2.836290789295e-07 0.000000000000e+00 -9.724240030876e-02 3.229268741847e-07 0.000000000000e+00 -9.724307975573e-02 3.614816024146e-07 0.000000000000e+00 -9.725000808489e-02 3.976174604278e-07 0.000000000000e+00 -9.727571521969e-02 4.286866295181e-07 0.000000000000e+00 -9.730927859658e-02 4.513405012291e-07 0.000000000000e+00 -9.731649665855e-02 4.617544488590e-07 0.000000000000e+00 -9.725121909246e-02 4.557822429967e-07 0.000000000000e+00 -9.703422433712e-02 4.740151456438e-07 0.000000000000e+00 -9.439363413229e-02 5.009781401551e-07 0.000000000000e+00 -9.196180685604e-02 4.837235241387e-07 0.000000000000e+00 -9.489611191580e-02 5.076081095653e-07 0.000000000000e+00 -9.268080103707e-02 4.746327117593e-07 0.000000000000e+00 -9.507524943678e-02 4.979711899827e-07 0.000000000000e+00 -9.293367907833e-02 5.422929110483e-07 0.000000000000e+00 -8.974471282334e-02 5.295767789909e-07 0.000000000000e+00 -9.090929136249e-02 5.193162871126e-07 0.000000000000e+00 -9.097099479225e-02 4.517923651947e-07 0.000000000000e+00 -9.508638149007e-02 4.740817099146e-07 0.000000000000e+00 -9.297111485738e-02 4.932385771504e-07 0.000000000000e+00 -9.099876675437e-02 4.193730459352e-07 0.000000000000e+00 -9.500766203826e-02 3.809182998608e-07 0.000000000000e+00 -9.492253525563e-02 3.399312743837e-07 0.000000000000e+00 -9.489577571231e-02 2.989667630999e-07 0.000000000000e+00 -9.490674754702e-02 2.589141389244e-07 0.000000000000e+00 -9.490565062055e-02 2.197082537886e-07 0.000000000000e+00 -9.486797828060e-02 1.809384640834e-07 0.000000000000e+00 -9.478459310481e-02 1.419574221699e-07 0.000000000000e+00 -9.466690945570e-02 4.403058751851e-07 0.000000000000e+00 -9.285218464652e-02 4.585276597503e-07 0.000000000000e+00 -9.088320306749e-02 5.478006309160e-07 0.000000000000e+00 -8.742992356115e-02 5.378366629008e-07 0.000000000000e+00 -8.916805724987e-02 5.053419678484e-07 0.000000000000e+00 -8.911332153969e-02 4.709192428917e-07 0.000000000000e+00 -8.910810471326e-02 4.840087236558e-07 0.000000000000e+00 -8.484595001717e-02 4.820509665104e-07 0.000000000000e+00 -8.208543188283e-02 4.304179411729e-07 0.000000000000e+00 -7.931809532215e-02 3.434496060527e-07 0.000000000000e+00 -7.787909240680e-02 3.992943930135e-07 0.000000000000e+00 -9.262030846983e-02 3.547625022704e-07 0.000000000000e+00 -9.251001944678e-02 3.116162723646e-07 0.000000000000e+00 -9.256788280647e-02 2.709893839578e-07 0.000000000000e+00 -9.260895764042e-02 2.321415177800e-07 0.000000000000e+00 -9.259278156020e-02 1.943188426974e-07 0.000000000000e+00 -9.249772848205e-02 1.566700172669e-07 0.000000000000e+00 -9.231097922159e-02 1.020018426248e-07 0.000000000000e+00 -9.458577808657e-02 1.177077437055e-07 0.000000000000e+00 -9.202234863333e-02 6.309711803669e-08 0.000000000000e+00 -9.487045817389e-02 4.171799736954e-07 0.000000000000e+00 -9.055677801830e-02 4.320538434509e-07 0.000000000000e+00 -8.881048362236e-02 4.144279486150e-08 0.000000000000e+00 -7.602817050377e-02 2.184297941976e-08 0.000000000000e+00 -7.792372889757e-02 2.435158430206e-08 0.000000000000e+00 -8.084493918653e-02 2.662157614370e-08 0.000000000000e+00 -8.377533137480e-02 2.942864293335e-08 0.000000000000e+00 -8.671252877381e-02 3.273782142354e-08 0.000000000000e+00 -8.974478867708e-02 3.284936186406e-08 0.000000000000e+00 -9.279157669056e-02 3.660143568204e-07 0.000000000000e+00 -8.989206823160e-02 3.195505087060e-07 0.000000000000e+00 -9.018698408586e-02 2.791555507057e-07 0.000000000000e+00 -9.032712667591e-02 2.415109218043e-07 0.000000000000e+00 -9.037887123123e-02 2.054270600220e-07 0.000000000000e+00 -9.031509507413e-02 1.700965761948e-07 0.000000000000e+00 -9.012273503513e-02 1.347627306530e-07 0.000000000000e+00 -8.977035616727e-02 7.118007252615e-08 0.000000000000e+00 -7.695475760694e-02 9.888005085705e-08 0.000000000000e+00 -7.619225445854e-02 1.202487664949e-07 0.000000000000e+00 -7.575112344478e-02 1.413020703247e-07 0.000000000000e+00 -7.570002739945e-02 1.631969024015e-07 0.000000000000e+00 -7.577113326873e-02 1.858471342043e-07 0.000000000000e+00 -7.586311162356e-02 2.091844411365e-07 0.000000000000e+00 -7.593576576749e-02 2.342243977923e-07 0.000000000000e+00 -7.603218517644e-02 2.632631552860e-07 0.000000000000e+00 -7.613072666630e-02 2.954275930424e-07 0.000000000000e+00 -7.587986193629e-02 4.713347936141e-08 0.000000000000e+00 -7.907833733494e-02 5.090409431404e-08 0.000000000000e+00 -8.214995734910e-02 5.547550519965e-08 0.000000000000e+00 -8.510174986996e-02 6.232615085484e-08 0.000000000000e+00 -8.811340330057e-02 7.269979120913e-08 0.000000000000e+00 -9.161572679339e-02 9.842664078262e-08 0.000000000000e+00 -8.917725136607e-02 8.605128302831e-08 0.000000000000e+00 -8.631587629391e-02 7.847492534231e-08 0.000000000000e+00 -8.352517566851e-02 7.444605046450e-08 0.000000000000e+00 -8.055380059593e-02 1.011241402228e-07 0.000000000000e+00 -7.933625550076e-02 1.165521958932e-07 0.000000000000e+00 -7.778323179201e-02 1.358070710046e-07 0.000000000000e+00 -7.784078691073e-02 1.585617032542e-07 0.000000000000e+00 -7.798691436880e-02 1.837328262456e-07 0.000000000000e+00 -7.821732768006e-02 2.099988103514e-07 0.000000000000e+00 -7.833280165670e-02 2.366739165050e-07 0.000000000000e+00 -7.838778575903e-02 2.683114821046e-07 0.000000000000e+00 -7.866290483721e-02 3.156617154653e-07 0.000000000000e+00 -7.914079334291e-02 4.963847263012e-07 0.000000000000e+00 -8.681863092361e-02 4.745133631416e-07 0.000000000000e+00 -8.759170677681e-02 4.399729438735e-07 0.000000000000e+00 -8.723597584920e-02 4.489247824169e-07 0.000000000000e+00 -8.388894934488e-02 4.431479186182e-07 0.000000000000e+00 -8.566627736329e-02 4.000916078683e-07 0.000000000000e+00 -8.088817164252e-02 3.832844641881e-07 0.000000000000e+00 -8.300880383622e-02 4.061095244491e-07 0.000000000000e+00 -8.544050783030e-02 4.002229049223e-07 0.000000000000e+00 -8.678318098114e-02 3.899395899158e-07 0.000000000000e+00 -8.828946303391e-02 3.148305222085e-07 0.000000000000e+00 -8.152702329223e-02 3.583554832843e-07 0.000000000000e+00 -8.450166874839e-02 3.663753014143e-07 0.000000000000e+00 -8.641914257287e-02 2.716866839975e-07 0.000000000000e+00 -8.076318984296e-02 3.484440731240e-07 0.000000000000e+00 -8.727866382108e-02 3.183408007810e-07 0.000000000000e+00 -8.782217626148e-02 2.420351287580e-07 0.000000000000e+00 -8.061439041129e-02 2.815553909629e-07 0.000000000000e+00 -8.802895626170e-02 2.140639960998e-07 0.000000000000e+00 -8.099744011771e-02 2.466555589343e-07 0.000000000000e+00 -8.821918680779e-02 2.133743653712e-07 0.000000000000e+00 -8.823374606949e-02 1.808029876264e-07 0.000000000000e+00 -8.807909452948e-02 1.488578338051e-07 0.000000000000e+00 -8.776625259708e-02 1.173788209032e-07 0.000000000000e+00 -8.721567618797e-02 1.053483915304e-07 0.000000000000e+00 -8.474548284155e-02 1.000248546107e-07 0.000000000000e+00 -8.226597120108e-02 1.317500542475e-07 0.000000000000e+00 -8.551062377424e-02 1.199059866128e-07 0.000000000000e+00 -8.362720492033e-02 1.225913508015e-07 0.000000000000e+00 -8.179881488730e-02 1.289630728951e-07 0.000000000000e+00 -7.979167105477e-02 1.594062301350e-07 0.000000000000e+00 -8.589599776296e-02 1.885389271855e-07 0.000000000000e+00 -8.614910059266e-02 2.177838958650e-07 0.000000000000e+00 -8.627984065283e-02 1.410397696032e-07 0.000000000000e+00 -8.380956880684e-02 1.670030710759e-07 0.000000000000e+00 -8.406824562947e-02 1.943187639525e-07 0.000000000000e+00 -8.435401306573e-02 1.473187460532e-07 0.000000000000e+00 -8.195813968788e-02 1.735179668332e-07 0.000000000000e+00 -8.225165042091e-02 1.534099653451e-07 0.000000000000e+00 -8.003243690410e-02 1.800051167429e-07 0.000000000000e+00 -8.036946343238e-02 2.021370005445e-07 0.000000000000e+00 -8.273854827237e-02 2.188487687343e-07 0.000000000000e+00 -8.465346837688e-02 2.350463002633e-07 0.000000000000e+00 -8.382046828714e-02 2.548981546994e-07 0.000000000000e+00 -8.291086018454e-02 2.728527171932e-07 0.000000000000e+00 -8.231092201961e-02 3.062735491058e-07 0.000000000000e+00 -8.308821179337e-02 3.310835690251e-07 0.000000000000e+00 -8.524671128353e-02 3.136502152646e-07 0.000000000000e+00 -8.601474138467e-02 2.924761857740e-07 0.000000000000e+00 -8.418585652682e-02 2.773827254154e-07 0.000000000000e+00 -8.555189617100e-02 2.461781462002e-07 0.000000000000e+00 -8.609129323350e-02 5.098165325808e-07 0.000000000000e+00 -6.820807410650e-02 5.017939427843e-07 0.000000000000e+00 -6.533008016202e-02 5.089149076374e-07 0.000000000000e+00 -6.245207008128e-02 5.206358920277e-07 0.000000000000e+00 -5.957404819332e-02 5.348455222288e-07 0.000000000000e+00 -5.669601991633e-02 5.505599742553e-07 0.000000000000e+00 -5.389645324877e-02 5.678889251419e-07 0.000000000000e+00 -5.109688495420e-02 5.866651028389e-07 0.000000000000e+00 -4.829731591740e-02 6.067632738767e-07 0.000000000000e+00 -4.549774661461e-02 6.280828977095e-07 0.000000000000e+00 -4.269817723461e-02 6.505003261338e-07 0.000000000000e+00 -3.989860769653e-02 6.738375295373e-07 0.000000000000e+00 -3.709903757498e-02 6.978461155192e-07 0.000000000000e+00 -3.429946604335e-02 7.221566924951e-07 0.000000000000e+00 -3.149989163799e-02 7.462313365479e-07 0.000000000000e+00 -2.870031179059e-02 7.676944742034e-07 0.000000000000e+00 -2.609105988099e-02 7.868428299486e-07 0.000000000000e+00 -2.348179268078e-02 8.010977813535e-07 0.000000000000e+00 -2.087249584250e-02 8.089138501204e-07 0.000000000000e+00 -1.826313433668e-02 8.503612342055e-07 0.000000000000e+00 -1.565363017264e-02 1.155271078312e-06 0.000000000000e+00 -1.304420258871e-02 1.325840138953e-06 0.000000000000e+00 -1.043550400935e-02 1.222405009678e-06 0.000000000000e+00 -7.826773893264e-03 1.137167202485e-06 0.000000000000e+00 -5.217894740933e-03 1.079990846473e-06 0.000000000000e+00 -2.608957774462e-03 1.036229563269e-06 0.000000000000e+00 0.000000000000e+00 1.270702013012e-06 0.000000000000e+00 0.000000000000e+00 1.312516668451e-06 0.000000000000e+00 -2.861951149290e-03 1.363936909517e-06 0.000000000000e+00 -5.723868863465e-03 1.390468325805e-06 0.000000000000e+00 -8.585726864371e-03 1.283109709008e-06 0.000000000000e+00 -1.144758999503e-02 1.031453743266e-06 0.000000000000e+00 -1.430972152348e-02 8.693592669633e-07 0.000000000000e+00 -1.708323918851e-02 8.115288464586e-07 0.000000000000e+00 -1.985677147990e-02 7.885369562798e-07 0.000000000000e+00 -2.263025791707e-02 7.718778325773e-07 0.000000000000e+00 -2.540370988611e-02 7.549875368785e-07 0.000000000000e+00 -2.817714129957e-02 7.370882569575e-07 0.000000000000e+00 -3.095056079426e-02 7.184865179373e-07 0.000000000000e+00 -3.372397345715e-02 6.996761062807e-07 0.000000000000e+00 -3.649738225575e-02 6.811292323371e-07 0.000000000000e+00 -3.927078896595e-02 6.632615371318e-07 0.000000000000e+00 -4.204419464282e-02 6.455008585647e-07 0.000000000000e+00 -4.497398708754e-02 6.292228693873e-07 0.000000000000e+00 -4.790377928447e-02 6.147790425288e-07 0.000000000000e+00 -5.083357110822e-02 6.025798552136e-07 0.000000000000e+00 -5.376336207177e-02 5.931379109739e-07 0.000000000000e+00 -5.669315116615e-02 5.876247306169e-07 0.000000000000e+00 -5.929056904728e-02 5.853770073285e-07 0.000000000000e+00 -6.188798188857e-02 5.869650898884e-07 0.000000000000e+00 -6.448538506475e-02 5.927657642669e-07 0.000000000000e+00 -6.708276550628e-02 6.376775595310e-07 0.000000000000e+00 -6.968009964013e-02 6.633998353056e-07 0.000000000000e+00 -7.227756520837e-02 6.762282061123e-07 0.000000000000e+00 -7.487495400478e-02 6.544055402674e-07 0.000000000000e+00 -7.747230317546e-02 5.756610290529e-07 0.000000000000e+00 -8.006974291377e-02 5.329387449511e-07 0.000000000000e+00 -8.266724640762e-02 6.390825435661e-07 0.000000000000e+00 -4.333259628382e-02 7.388691453953e-07 0.000000000000e+00 -2.983197804245e-02 6.522947848828e-07 0.000000000000e+00 -4.144887345930e-02 6.476295858262e-07 0.000000000000e+00 -5.669325705920e-02 6.960559375041e-07 0.000000000000e+00 -5.669335633379e-02 7.341968150419e-07 0.000000000000e+00 -5.669345147515e-02 7.607167310612e-07 0.000000000000e+00 -5.669354595021e-02 7.764604301601e-07 0.000000000000e+00 -5.669364218413e-02 7.831746325520e-07 0.000000000000e+00 -5.669374130078e-02 7.826034716289e-07 0.000000000000e+00 -5.669384350717e-02 7.761667786120e-07 0.000000000000e+00 -5.669394853727e-02 7.649460324563e-07 0.000000000000e+00 -5.669405591621e-02 7.497474093704e-07 0.000000000000e+00 -5.669416510056e-02 7.311694227453e-07 0.000000000000e+00 -5.669427554805e-02 7.096598771444e-07 0.000000000000e+00 -5.669438675090e-02 6.855592335474e-07 0.000000000000e+00 -5.669449824986e-02 6.591329313351e-07 0.000000000000e+00 -5.669460963988e-02 6.305949161019e-07 0.000000000000e+00 -5.669472056910e-02 6.001246533457e-07 0.000000000000e+00 -5.669483073441e-02 5.678785721292e-07 0.000000000000e+00 -5.669493987766e-02 5.339977554149e-07 0.000000000000e+00 -5.669504778014e-02 4.986135909508e-07 0.000000000000e+00 -5.669515425606e-02 4.618513425055e-07 0.000000000000e+00 -5.669525914922e-02 4.238320140320e-07 0.000000000000e+00 -5.669536232862e-02 3.846739805971e-07 0.000000000000e+00 -5.669546368396e-02 3.444939572977e-07 0.000000000000e+00 -5.669556312341e-02 3.034073824347e-07 0.000000000000e+00 -5.669566057064e-02 2.615289212284e-07 0.000000000000e+00 -5.669575596280e-02 2.189725798357e-07 0.000000000000e+00 -5.669584924858e-02 1.758515357111e-07 0.000000000000e+00 -5.669594038585e-02 1.322814216380e-07 0.000000000000e+00 -5.669602934143e-02 8.837609651786e-08 0.000000000000e+00 -5.669611609191e-02 4.424550831348e-08 0.000000000000e+00 -5.669620062014e-02 0.000000000000e+00 0.000000000000e+00 -5.669628291584e-02 0.000000000000e+00 0.000000000000e+00 -5.955079597628e-02 0.000000000000e+00 0.000000000000e+00 -6.240531596992e-02 0.000000000000e+00 0.000000000000e+00 -6.525984310121e-02 0.000000000000e+00 0.000000000000e+00 -6.811437755319e-02 0.000000000000e+00 0.000000000000e+00 -7.096891948985e-02 0.000000000000e+00 0.000000000000e+00 -7.382346905649e-02 0.000000000000e+00 0.000000000000e+00 -7.667802637592e-02 0.000000000000e+00 0.000000000000e+00 -7.953259154342e-02 0.000000000000e+00 0.000000000000e+00 -8.238716462581e-02 2.801707918833e-08 0.000000000000e+00 -5.850885191745e-02 1.872237852198e-08 0.000000000000e+00 -8.343037117437e-02 5.091542311984e-07 0.000000000000e+00 -8.312310821750e-02 4.176789391167e-08 0.000000000000e+00 -8.306135074172e-02 6.190867633881e-08 0.000000000000e+00 -5.887376581347e-02 3.362954161849e-08 0.000000000000e+00 -6.072988567342e-02 5.647915188678e-07 0.000000000000e+00 -8.084918001390e-02 2.367183918741e-08 0.000000000000e+00 -8.121622945209e-02 4.985822699722e-07 0.000000000000e+00 -8.318838416175e-02 5.439313662480e-07 0.000000000000e+00 -8.149762604420e-02 6.254448810199e-07 0.000000000000e+00 -7.835230096102e-02 5.935433762485e-07 0.000000000000e+00 -7.937792321058e-02 6.726693122381e-07 0.000000000000e+00 -7.569539054295e-02 6.797858694017e-07 0.000000000000e+00 -7.303932542144e-02 6.679808617728e-07 0.000000000000e+00 -7.047804764194e-02 6.917769549096e-07 0.000000000000e+00 -6.801439832325e-02 6.626791323568e-07 0.000000000000e+00 -6.558070782793e-02 6.541559167964e-07 0.000000000000e+00 -6.301345573921e-02 6.597712138991e-07 0.000000000000e+00 -5.982939634329e-02 4.972257601685e-07 0.000000000000e+00 -8.303184696627e-02 5.498865682565e-07 0.000000000000e+00 -8.094416831460e-02 4.957513422229e-07 0.000000000000e+00 -8.293688359143e-02 4.931328096433e-07 0.000000000000e+00 -8.291408025249e-02 4.898764191013e-07 0.000000000000e+00 -8.290338542902e-02 4.857417982031e-07 0.000000000000e+00 -8.288311265458e-02 4.801934132308e-07 0.000000000000e+00 -8.286100030467e-02 4.727754401440e-07 0.000000000000e+00 -8.285621761808e-02 4.634259564379e-07 0.000000000000e+00 -8.287465172898e-02 4.523764206478e-07 0.000000000000e+00 -8.290480674701e-02 4.398488197566e-07 0.000000000000e+00 -8.293288900519e-02 4.259602444877e-07 0.000000000000e+00 -8.294908109927e-02 4.107217580953e-07 0.000000000000e+00 -8.294887309814e-02 3.940693421138e-07 0.000000000000e+00 -8.293485419616e-02 3.759532681860e-07 0.000000000000e+00 -8.291264905460e-02 3.563768762721e-07 0.000000000000e+00 -8.288655209543e-02 3.353625914923e-07 0.000000000000e+00 -8.286176860142e-02 3.129521133681e-07 0.000000000000e+00 -8.285064273697e-02 2.893196786132e-07 0.000000000000e+00 -8.286591458376e-02 2.648163074597e-07 0.000000000000e+00 -8.289893753690e-02 2.397443841037e-07 0.000000000000e+00 -8.291901810142e-02 2.141225048984e-07 0.000000000000e+00 -8.289831676147e-02 1.876908175902e-07 0.000000000000e+00 -8.282981367465e-02 1.600808441859e-07 0.000000000000e+00 -8.273425620938e-02 1.310776504376e-07 0.000000000000e+00 -8.265309022816e-02 1.008920842376e-07 0.000000000000e+00 -8.264442488744e-02 7.048712173748e-08 0.000000000000e+00 -8.277526191134e-02 5.263711438202e-08 0.000000000000e+00 -8.045089653176e-02 1.035923510754e-07 0.000000000000e+00 -5.912964666716e-02 1.473077381637e-07 0.000000000000e+00 -5.921490933155e-02 1.907013794191e-07 0.000000000000e+00 -5.919492612351e-02 2.329777396365e-07 0.000000000000e+00 -5.915300231073e-02 2.741811874637e-07 0.000000000000e+00 -5.912039502428e-02 3.144454863101e-07 0.000000000000e+00 -5.910387106545e-02 3.538329608894e-07 0.000000000000e+00 -5.909973535228e-02 3.923125961301e-07 0.000000000000e+00 -5.910104045082e-02 4.297798972670e-07 0.000000000000e+00 -5.910302852098e-02 4.661028878589e-07 0.000000000000e+00 -5.910549044059e-02 5.011702087041e-07 0.000000000000e+00 -5.911001616124e-02 5.349021820944e-07 0.000000000000e+00 -5.911666233248e-02 5.672285527558e-07 0.000000000000e+00 -5.912385864777e-02 5.980666751668e-07 0.000000000000e+00 -5.912939712392e-02 6.273069436295e-07 0.000000000000e+00 -5.913100486036e-02 6.547993697289e-07 0.000000000000e+00 -5.912752469941e-02 6.803477148444e-07 0.000000000000e+00 -5.912037055694e-02 7.037175432891e-07 0.000000000000e+00 -5.911325571074e-02 7.246428869174e-07 0.000000000000e+00 -5.910989766592e-02 7.428055656673e-07 0.000000000000e+00 -5.911150434037e-02 7.577743687341e-07 0.000000000000e+00 -5.911537842079e-02 7.689081444038e-07 0.000000000000e+00 -5.911554977707e-02 7.752451077277e-07 0.000000000000e+00 -5.910372636254e-02 7.753991457191e-07 0.000000000000e+00 -5.907711410005e-02 7.675530894716e-07 0.000000000000e+00 -5.905709107832e-02 7.494625633450e-07 0.000000000000e+00 -5.909715338222e-02 7.175390032033e-07 0.000000000000e+00 -5.928951817905e-02 7.056782468692e-07 0.000000000000e+00 -6.194530689956e-02 7.052080126551e-07 0.000000000000e+00 -6.436617602090e-02 7.396901614017e-07 0.000000000000e+00 -6.148991301861e-02 7.330304514237e-07 0.000000000000e+00 -6.370615736502e-02 7.590753645621e-07 0.000000000000e+00 -6.137367280961e-02 7.153019067076e-07 0.000000000000e+00 -6.654088054801e-02 7.294554320834e-07 0.000000000000e+00 -6.543890845407e-02 7.509431930229e-07 0.000000000000e+00 -6.355252393232e-02 7.425833410016e-07 0.000000000000e+00 -6.547641461158e-02 7.675272741133e-07 0.000000000000e+00 -6.142039179789e-02 7.590882625621e-07 0.000000000000e+00 -6.364786444764e-02 7.673793765171e-07 0.000000000000e+00 -6.150360181148e-02 7.583157659842e-07 0.000000000000e+00 -6.388022804269e-02 7.607791641066e-07 0.000000000000e+00 -6.154322339252e-02 7.494722354977e-07 0.000000000000e+00 -6.154318451986e-02 7.345650197290e-07 0.000000000000e+00 -6.153105125663e-02 7.167344038405e-07 0.000000000000e+00 -6.152128504710e-02 6.963515776626e-07 0.000000000000e+00 -6.152412750155e-02 6.736630269129e-07 0.000000000000e+00 -6.153964966760e-02 6.489031430456e-07 0.000000000000e+00 -6.156008288950e-02 6.223335715015e-07 0.000000000000e+00 -6.157443991339e-02 5.942051125944e-07 0.000000000000e+00 -6.157554355791e-02 5.646936126578e-07 0.000000000000e+00 -6.156432489977e-02 5.338893583166e-07 0.000000000000e+00 -6.154662030632e-02 5.018298458097e-07 0.000000000000e+00 -6.152836670398e-02 4.685230549307e-07 0.000000000000e+00 -6.151458364247e-02 4.339682522472e-07 0.000000000000e+00 -6.150834674932e-02 3.982256599873e-07 0.000000000000e+00 -6.150629670218e-02 3.614601323119e-07 0.000000000000e+00 -6.150206140920e-02 3.238399870765e-07 0.000000000000e+00 -6.150053874245e-02 2.854078725893e-07 0.000000000000e+00 -6.151845869285e-02 2.460298898528e-07 0.000000000000e+00 -6.157092838679e-02 2.053751745140e-07 0.000000000000e+00 -6.166171975949e-02 1.629089265433e-07 0.000000000000e+00 -6.177127626191e-02 7.508675976478e-07 0.000000000000e+00 -6.400587654797e-02 7.392737617088e-07 0.000000000000e+00 -6.398777257453e-02 7.243567076575e-07 0.000000000000e+00 -6.396051533954e-02 7.069314044709e-07 0.000000000000e+00 -6.392745447838e-02 6.872128089746e-07 0.000000000000e+00 -6.391990706013e-02 6.652921257146e-07 0.000000000000e+00 -6.394278956106e-02 6.413133440844e-07 0.000000000000e+00 -6.398487541363e-02 6.155524045092e-07 0.000000000000e+00 -6.402431737294e-02 5.883924140545e-07 0.000000000000e+00 -6.403813181331e-02 5.601218316748e-07 0.000000000000e+00 -6.402144031798e-02 5.308205496477e-07 0.000000000000e+00 -6.398776474617e-02 5.004647043279e-07 0.000000000000e+00 -6.395077133022e-02 4.690098963304e-07 0.000000000000e+00 -6.391943103475e-02 4.363716966790e-07 0.000000000000e+00 -6.390322653313e-02 4.024339828978e-07 0.000000000000e+00 -6.390772106021e-02 3.673353111078e-07 0.000000000000e+00 -6.391142190864e-02 3.314525045200e-07 0.000000000000e+00 -6.389706734235e-02 2.949509954039e-07 0.000000000000e+00 -6.389558744381e-02 2.577255087263e-07 0.000000000000e+00 -6.394286294714e-02 2.194167926314e-07 0.000000000000e+00 -6.405903086050e-02 1.793219299266e-07 0.000000000000e+00 -6.425143862880e-02 7.494877556618e-07 0.000000000000e+00 -6.565309831232e-02 7.113109831346e-07 0.000000000000e+00 -6.874387816079e-02 7.317056318582e-07 0.000000000000e+00 -6.713053093584e-02 7.376386330644e-07 0.000000000000e+00 -6.741229702127e-02 6.930648534307e-07 0.000000000000e+00 -7.113020371085e-02 6.814178397319e-07 0.000000000000e+00 -7.379081915725e-02 6.480219391350e-07 0.000000000000e+00 -7.664653076176e-02 6.101858829060e-07 0.000000000000e+00 -7.797514700765e-02 1.180346744647e-07 0.000000000000e+00 -6.182140556613e-02 1.360882998865e-07 0.000000000000e+00 -6.450825824332e-02 7.481385427843e-07 0.000000000000e+00 -6.603405811054e-02 7.368492937774e-07 0.000000000000e+00 -6.782822941274e-02 7.366926509353e-07 0.000000000000e+00 -6.668677602867e-02 7.262426035069e-07 0.000000000000e+00 -6.643887343639e-02 7.111431003623e-07 0.000000000000e+00 -6.642953814476e-02 6.944880224085e-07 0.000000000000e+00 -6.633307008149e-02 6.758694151652e-07 0.000000000000e+00 -6.628892303359e-02 6.550477358683e-07 0.000000000000e+00 -6.631106386443e-02 6.320361581630e-07 0.000000000000e+00 -6.638062951389e-02 6.070176282887e-07 0.000000000000e+00 -6.646986609259e-02 5.805608853760e-07 0.000000000000e+00 -6.652622469974e-02 5.533777726534e-07 0.000000000000e+00 -6.650920300534e-02 5.255908460287e-07 0.000000000000e+00 -6.644766749469e-02 4.969840235600e-07 0.000000000000e+00 -6.638148498733e-02 4.674496920373e-07 0.000000000000e+00 -6.632171245235e-02 4.369132087864e-07 0.000000000000e+00 -6.627898694205e-02 4.051333799529e-07 0.000000000000e+00 -6.627696210922e-02 3.715767587458e-07 0.000000000000e+00 -6.633605452811e-02 3.371240411347e-07 0.000000000000e+00 -6.632585882990e-02 3.025424769422e-07 0.000000000000e+00 -6.626316893532e-02 2.675385586365e-07 0.000000000000e+00 -6.627550193444e-02 2.319924338017e-07 0.000000000000e+00 -6.636644434797e-02 1.951860161034e-07 0.000000000000e+00 -6.658951058096e-02 1.562388335589e-07 0.000000000000e+00 -6.694280365457e-02 7.342404738313e-08 0.000000000000e+00 -6.148925212276e-02 7.196372797909e-07 0.000000000000e+00 -6.919532329062e-02 7.246952760519e-07 0.000000000000e+00 -6.922240457485e-02 7.017642911904e-07 0.000000000000e+00 -7.155310509991e-02 3.839244654177e-08 0.000000000000e+00 -6.355691090501e-02 3.852475881124e-08 0.000000000000e+00 -6.663240172677e-02 3.499361446953e-08 0.000000000000e+00 -6.966382040571e-02 3.239634372385e-08 0.000000000000e+00 -7.256161997773e-02 3.144508507832e-08 0.000000000000e+00 -7.547032903633e-02 2.882028047787e-08 0.000000000000e+00 -7.842806552507e-02 8.603417949525e-08 0.000000000000e+00 -7.999313331148e-02 1.203856158004e-07 0.000000000000e+00 -7.992954715048e-02 1.528173480906e-07 0.000000000000e+00 -8.008591559317e-02 1.825855286775e-07 0.000000000000e+00 -8.031139298416e-02 2.100280156866e-07 0.000000000000e+00 -8.051686794648e-02 2.361477751521e-07 0.000000000000e+00 -8.061771049355e-02 2.619341937526e-07 0.000000000000e+00 -8.060285598255e-02 2.878869559658e-07 0.000000000000e+00 -8.051421878744e-02 3.136881036977e-07 0.000000000000e+00 -8.043848295173e-02 3.384193769881e-07 0.000000000000e+00 -8.043918665171e-02 3.615441347366e-07 0.000000000000e+00 -8.049067920527e-02 3.830865907253e-07 0.000000000000e+00 -8.054897745705e-02 4.031122884368e-07 0.000000000000e+00 -8.060281081263e-02 4.216410425516e-07 0.000000000000e+00 -8.064749443514e-02 4.388079254363e-07 0.000000000000e+00 -8.067021851143e-02 4.549320201495e-07 0.000000000000e+00 -8.065434754730e-02 4.702519176403e-07 0.000000000000e+00 -8.060017018776e-02 4.847147933787e-07 0.000000000000e+00 -8.052632067003e-02 4.980695418692e-07 0.000000000000e+00 -8.045555300729e-02 5.096551252428e-07 0.000000000000e+00 -8.042963625138e-02 5.188780338453e-07 0.000000000000e+00 -8.047209732514e-02 5.263984012868e-07 0.000000000000e+00 -8.053418234925e-02 5.335238299851e-07 0.000000000000e+00 -8.056199077891e-02 5.410902776538e-07 0.000000000000e+00 -8.055695834794e-02 5.486938178222e-07 0.000000000000e+00 -8.059279522012e-02 8.470076236836e-08 0.000000000000e+00 -6.483186051355e-02 1.147837283850e-07 0.000000000000e+00 -6.744732385798e-02 7.323659575344e-08 0.000000000000e+00 -6.837523982898e-02 6.567654111642e-08 0.000000000000e+00 -7.133106288995e-02 1.005418370575e-07 0.000000000000e+00 -7.034418760943e-02 6.198570913887e-08 0.000000000000e+00 -7.410491002986e-02 9.069820689771e-08 0.000000000000e+00 -7.292585486736e-02 6.492741589084e-08 0.000000000000e+00 -7.721278611086e-02 8.648825004412e-08 0.000000000000e+00 -7.510693062799e-02 1.065826047891e-07 0.000000000000e+00 -7.691361490865e-02 1.446909381084e-07 0.000000000000e+00 -7.724633000377e-02 1.781057918490e-07 0.000000000000e+00 -7.760248941176e-02 2.068831019326e-07 0.000000000000e+00 -7.807301130362e-02 2.327857042948e-07 0.000000000000e+00 -7.836225986863e-02 2.581689016881e-07 0.000000000000e+00 -7.841362989267e-02 2.845585464492e-07 0.000000000000e+00 -7.826807529747e-02 3.125888930382e-07 0.000000000000e+00 -7.802407426383e-02 3.404542577540e-07 0.000000000000e+00 -7.794250750792e-02 3.660033710461e-07 0.000000000000e+00 -7.804934081881e-02 3.895705294593e-07 0.000000000000e+00 -7.815422051527e-02 4.115246892085e-07 0.000000000000e+00 -7.824714114087e-02 4.318763233036e-07 0.000000000000e+00 -7.833502224788e-02 4.505784022248e-07 0.000000000000e+00 -7.841302935762e-02 4.681504333444e-07 0.000000000000e+00 -7.843655393019e-02 4.855384652170e-07 0.000000000000e+00 -7.836781412752e-02 5.029436346074e-07 0.000000000000e+00 -7.824058311290e-02 5.200401402714e-07 0.000000000000e+00 -7.809636284136e-02 5.367038048663e-07 0.000000000000e+00 -7.795053421645e-02 5.502475237669e-07 0.000000000000e+00 -7.797317411211e-02 5.600093616602e-07 0.000000000000e+00 -7.814058051180e-02 5.693539997281e-07 0.000000000000e+00 -7.823743212197e-02 5.800336934153e-07 0.000000000000e+00 -7.822466865282e-02 5.932784449525e-07 0.000000000000e+00 -7.811254636598e-02 1.372293940109e-07 0.000000000000e+00 -6.968421322901e-02 1.742421136736e-07 0.000000000000e+00 -6.918406703648e-02 2.092844011951e-07 0.000000000000e+00 -6.874825852467e-02 1.213137095292e-07 0.000000000000e+00 -7.228981879383e-02 1.080886596827e-07 0.000000000000e+00 -7.435384039487e-02 1.352488231477e-07 0.000000000000e+00 -7.451762017661e-02 2.420813313067e-07 0.000000000000e+00 -6.860470063306e-02 2.750708071392e-07 0.000000000000e+00 -6.860503264057e-02 3.080249942171e-07 0.000000000000e+00 -6.860488574509e-02 3.403116914717e-07 0.000000000000e+00 -6.896286102028e-02 3.755374759616e-07 0.000000000000e+00 -6.864062575944e-02 4.061689822842e-07 0.000000000000e+00 -6.858954211410e-02 4.353709375465e-07 0.000000000000e+00 -6.864505261000e-02 4.637822957722e-07 0.000000000000e+00 -6.872988656066e-02 4.913501072457e-07 0.000000000000e+00 -6.882702807765e-02 5.180415312244e-07 0.000000000000e+00 -6.894196539860e-02 5.441337118603e-07 0.000000000000e+00 -6.907317390761e-02 5.708274100150e-07 0.000000000000e+00 -6.904592150112e-02 5.971480295203e-07 0.000000000000e+00 -6.886544127541e-02 6.211132585426e-07 0.000000000000e+00 -6.871587993151e-02 6.427481137611e-07 0.000000000000e+00 -6.861665828246e-02 6.617636004760e-07 0.000000000000e+00 -6.861482823401e-02 6.781798687435e-07 0.000000000000e+00 -6.876209076361e-02 6.928414995956e-07 0.000000000000e+00 -6.908361077049e-02 1.558017646482e-07 0.000000000000e+00 -7.188877217948e-02 1.912981688189e-07 0.000000000000e+00 -7.125015103601e-02 2.205949938143e-07 0.000000000000e+00 -7.050378903814e-02 2.473755540844e-07 0.000000000000e+00 -7.114712156376e-02 1.749769703081e-07 0.000000000000e+00 -7.439565040193e-02 2.065846125696e-07 0.000000000000e+00 -7.547970983301e-02 2.127209431135e-07 0.000000000000e+00 -7.277469833679e-02 2.312094579935e-07 0.000000000000e+00 -7.615799313032e-02 2.354031558093e-07 0.000000000000e+00 -7.387374653907e-02 2.542122550177e-07 0.000000000000e+00 -7.640386389437e-02 2.513111640120e-07 0.000000000000e+00 -7.476850597764e-02 2.631246858643e-07 0.000000000000e+00 -7.292900637694e-02 2.822391422506e-07 0.000000000000e+00 -7.075988112376e-02 2.791366642671e-07 0.000000000000e+00 -7.624762272636e-02 2.725501399720e-07 0.000000000000e+00 -7.449771166566e-02 2.894077378567e-07 0.000000000000e+00 -7.255833704707e-02 3.098009783781e-07 0.000000000000e+00 -7.073951284332e-02 2.977585391933e-07 0.000000000000e+00 -7.410392030817e-02 3.105059712248e-07 0.000000000000e+00 -7.235371618198e-02 3.278238055166e-07 0.000000000000e+00 -7.122059487983e-02 3.507128026536e-07 0.000000000000e+00 -7.089565802902e-02 3.779356637252e-07 0.000000000000e+00 -7.078145940761e-02 3.071938185521e-07 0.000000000000e+00 -7.582718263053e-02 3.272588730005e-07 0.000000000000e+00 -7.316695156986e-02 3.545273540663e-07 0.000000000000e+00 -7.261114217396e-02 3.411949967295e-07 0.000000000000e+00 -7.516554754894e-02 3.699463839002e-07 0.000000000000e+00 -7.553703117947e-02 3.749470456180e-07 0.000000000000e+00 -7.304771909228e-02 3.953968126934e-07 0.000000000000e+00 -7.572265312225e-02 4.192665675607e-07 0.000000000000e+00 -7.585666595670e-02 4.415963375047e-07 0.000000000000e+00 -7.598279718117e-02 4.046550819819e-07 0.000000000000e+00 -7.089811316646e-02 4.006362271883e-07 0.000000000000e+00 -7.328149396519e-02 4.316735978993e-07 0.000000000000e+00 -7.102724234400e-02 4.261336205179e-07 0.000000000000e+00 -7.343917045415e-02 4.581007031161e-07 0.000000000000e+00 -7.115140591332e-02 4.505590105448e-07 0.000000000000e+00 -7.357970458359e-02 4.620196905704e-07 0.000000000000e+00 -7.612670236158e-02 4.734020686049e-07 0.000000000000e+00 -7.374783541288e-02 4.835288260543e-07 0.000000000000e+00 -7.129144616204e-02 5.076824941481e-07 0.000000000000e+00 -7.149677368789e-02 4.936047589284e-07 0.000000000000e+00 -7.400756753907e-02 4.799709653976e-07 0.000000000000e+00 -7.628446534142e-02 5.308193843153e-07 0.000000000000e+00 -7.192490906787e-02 5.062749345576e-07 0.000000000000e+00 -7.448313714286e-02 4.978318599696e-07 0.000000000000e+00 -7.625925678528e-02 5.612976450482e-07 0.000000000000e+00 -7.142839429551e-02 5.279583068655e-07 0.000000000000e+00 -7.395903523842e-02 5.861387319040e-07 0.000000000000e+00 -7.116125909827e-02 5.175662840297e-07 0.000000000000e+00 -7.604499229471e-02 5.512049915991e-07 0.000000000000e+00 -7.363101676602e-02 6.085580631383e-07 0.000000000000e+00 -7.095944813956e-02 5.376512351897e-07 0.000000000000e+00 -7.582755521459e-02 5.733685960466e-07 0.000000000000e+00 -7.337460990256e-02 6.285399792066e-07 0.000000000000e+00 -7.079792963315e-02 6.441469111106e-07 0.000000000000e+00 -7.087314203046e-02 5.579631713871e-07 0.000000000000e+00 -7.558281393404e-02 5.948514567626e-07 0.000000000000e+00 -7.308437409992e-02 6.558647487971e-07 0.000000000000e+00 -7.122533647153e-02 5.816564016792e-07 0.000000000000e+00 -7.515770691568e-02 6.145406586645e-07 0.000000000000e+00 -7.262397090428e-02 5.911673564126e-07 0.000000000000e+00 -7.567567405155e-02 6.202880437185e-07 0.000000000000e+00 -7.319875598675e-02 6.006593109489e-07 0.000000000000e+00 -7.594219416768e-02 6.290891424219e-07 0.000000000000e+00 -7.363077480391e-02 6.115301344231e-07 0.000000000000e+00 -7.601974093069e-02 6.374318754472e-07 0.000000000000e+00 -7.394643388454e-02 6.628124369556e-07 0.000000000000e+00 -7.179420994126e-02 6.258355922202e-07 0.000000000000e+00 -7.586387736533e-02 6.493049004855e-07 0.000000000000e+00 -7.390966505317e-02 6.649525268161e-07 0.000000000000e+00 -7.238645365469e-02 6.889040850627e-07 0.000000000000e+00 -7.049622190828e-02 7.126858695590e-07 0.000000000000e+00 -6.843848757402e-02 6.443536543220e-07 0.000000000000e+00 -7.546786556918e-02 6.667583635499e-07 0.000000000000e+00 -7.469079544965e-02 6.858018559733e-07 0.000000000000e+00 -7.271906298366e-02 7.156127898263e-07 0.000000000000e+00 -7.014305697655e-02 6.666415237558e-07 0.000000000000e+00 -7.346019778075e-02 7.002895315674e-07 0.000000000000e+00 -7.102045422345e-02 6.816090051138e-07 0.000000000000e+00 -7.179307781012e-02 7.101044580799e-07 0.000000000000e+00 -6.949303151940e-02 7.275203417622e-07 0.000000000000e+00 -6.853326145439e-02 0.000000000000e+00 0.000000000000e+00 -6.820803550135e-02 0.000000000000e+00 0.000000000000e+00 -6.532999279197e-02 0.000000000000e+00 0.000000000000e+00 -6.245195546063e-02 0.000000000000e+00 0.000000000000e+00 -5.957392213562e-02 0.000000000000e+00 0.000000000000e+00 -5.669589156956e-02 3.829376934804e-08 0.000000000000e+00 -5.669587451485e-02 7.617984549274e-08 0.000000000000e+00 -5.669586303193e-02 1.132926757064e-07 0.000000000000e+00 -5.669585699051e-02 1.493698623013e-07 0.000000000000e+00 -5.669585618270e-02 1.843009760508e-07 0.000000000000e+00 -5.669586031801e-02 2.181897882970e-07 0.000000000000e+00 -5.669586902110e-02 2.513698148406e-07 0.000000000000e+00 -5.669588181531e-02 2.844482592630e-07 0.000000000000e+00 -5.669589814241e-02 3.182946898559e-07 0.000000000000e+00 -5.669591731802e-02 3.540211555103e-07 0.000000000000e+00 -5.669593851835e-02 3.928045981747e-07 0.000000000000e+00 -5.669596073842e-02 4.356166672498e-07 0.000000000000e+00 -5.669598272950e-02 4.829767056640e-07 0.000000000000e+00 -5.669600300089e-02 1.654474248675e-08 0.000000000000e+00 -6.919059870182e-02 2.358435188704e-08 0.000000000000e+00 -5.855792213732e-02 4.772252345496e-07 0.000000000000e+00 -5.894530409593e-02 3.730814718904e-08 0.000000000000e+00 -6.874589274571e-02 5.179828542077e-08 0.000000000000e+00 -5.895524781787e-02 4.341355046942e-07 0.000000000000e+00 -5.878980631127e-02 2.701276101198e-08 0.000000000000e+00 -6.087546018641e-02 2.202469869589e-08 0.000000000000e+00 -6.683282710219e-02 4.630440044081e-07 0.000000000000e+00 -6.137516272215e-02 4.337736776202e-07 0.000000000000e+00 -6.053213512875e-02 3.898173939265e-07 0.000000000000e+00 -5.892845886258e-02 3.926755272182e-07 0.000000000000e+00 -6.092884398439e-02 3.466640029563e-07 0.000000000000e+00 -5.910533252056e-02 3.083432805296e-07 0.000000000000e+00 -5.914092932366e-02 2.760529732747e-07 0.000000000000e+00 -5.900550404753e-02 2.458297586008e-07 0.000000000000e+00 -5.894741201715e-02 2.114752754661e-07 0.000000000000e+00 -5.920432621736e-02 1.837669169441e-07 0.000000000000e+00 -5.882850192137e-02 1.508165798710e-07 0.000000000000e+00 -5.909875470011e-02 1.194723212723e-07 0.000000000000e+00 -5.890512382818e-02 8.584666013127e-08 0.000000000000e+00 -5.904145291806e-02 4.407435888088e-07 0.000000000000e+00 -6.412584958171e-02 4.073876613141e-07 0.000000000000e+00 -6.261072146658e-02 4.134473029042e-07 0.000000000000e+00 -6.763915224287e-02 3.327471662703e-07 0.000000000000e+00 -6.829329669050e-02 3.732157399611e-07 0.000000000000e+00 -6.533698540250e-02 2.830085977580e-07 0.000000000000e+00 -6.861177325229e-02 2.479335120393e-07 0.000000000000e+00 -6.879279599729e-02 2.207286755273e-07 0.000000000000e+00 -6.886079888435e-02 1.973060954730e-07 0.000000000000e+00 -6.879815201365e-02 1.748680365131e-07 0.000000000000e+00 -6.875355436571e-02 1.527084630356e-07 0.000000000000e+00 -6.879119054708e-02 1.308597609853e-07 0.000000000000e+00 -6.882607921911e-02 1.089716739321e-07 0.000000000000e+00 -6.882866408537e-02 8.653445337227e-08 0.000000000000e+00 -6.874688920783e-02 6.244739027193e-08 0.000000000000e+00 -6.860543415996e-02 5.278563645763e-08 0.000000000000e+00 -6.569153464726e-02 6.010243978672e-08 0.000000000000e+00 -6.188314401620e-02 2.677224906329e-08 0.000000000000e+00 -6.384361063026e-02 3.463045273945e-07 0.000000000000e+00 -6.134233795351e-02 3.547877888507e-07 0.000000000000e+00 -6.335357514245e-02 3.175344679063e-07 0.000000000000e+00 -6.598738575104e-02 2.756815374210e-07 0.000000000000e+00 -6.641537449436e-02 2.442017189845e-07 0.000000000000e+00 -6.669511907872e-02 3.080288110340e-07 0.000000000000e+00 -6.390348033484e-02 2.705212091550e-07 0.000000000000e+00 -6.449517890259e-02 2.990506033547e-07 0.000000000000e+00 -6.182157723686e-02 2.195020630295e-07 0.000000000000e+00 -6.671693133614e-02 2.433676169577e-07 0.000000000000e+00 -6.489594653450e-02 2.636808720790e-07 0.000000000000e+00 -6.324138280731e-02 2.651607829578e-07 0.000000000000e+00 -6.152548142107e-02 1.973186000835e-07 0.000000000000e+00 -6.630912649908e-02 2.239660454995e-07 0.000000000000e+00 -6.476430007504e-02 2.450610951701e-07 0.000000000000e+00 -6.347693118110e-02 1.717086440868e-07 0.000000000000e+00 -6.648590286784e-02 1.484337111033e-07 0.000000000000e+00 -6.655237697272e-02 1.257092239658e-07 0.000000000000e+00 -6.665867206796e-02 1.039895120560e-07 0.000000000000e+00 -6.661350469796e-02 8.144086232563e-08 0.000000000000e+00 -6.629992500365e-02 8.310253982023e-08 0.000000000000e+00 -6.367240139988e-02 9.620708142220e-08 0.000000000000e+00 -6.113807160489e-02 1.025834224268e-07 0.000000000000e+00 -6.451220563324e-02 1.079635764119e-07 0.000000000000e+00 -6.256977021856e-02 1.228875494622e-07 0.000000000000e+00 -6.080075446442e-02 1.219160231758e-07 0.000000000000e+00 -6.469678163751e-02 1.190930554904e-07 0.000000000000e+00 -6.329398624549e-02 1.254417837428e-07 0.000000000000e+00 -6.207163605366e-02 1.391679890329e-07 0.000000000000e+00 -6.107111569778e-02 1.591482202350e-07 0.000000000000e+00 -6.075818420954e-02 1.442781937053e-07 0.000000000000e+00 -6.450054509614e-02 1.385436280995e-07 0.000000000000e+00 -6.267581215698e-02 1.634816661392e-07 0.000000000000e+00 -6.237297118265e-02 1.810111916341e-07 0.000000000000e+00 -6.056413157773e-02 1.714221826399e-07 0.000000000000e+00 -6.411390616390e-02 1.892157005822e-07 0.000000000000e+00 -6.168249236637e-02 2.157023487070e-07 0.000000000000e+00 -6.106774233110e-02 1.962013570078e-07 0.000000000000e+00 -6.280752992729e-02 1.929847204530e-07 0.000000000000e+00 -6.444833862770e-02 2.115765477666e-07 0.000000000000e+00 -6.424480017823e-02 2.143313492455e-07 0.000000000000e+00 -6.275960152880e-02 2.407321867673e-07 0.000000000000e+00 -6.104352422239e-02 2.326536076615e-07 0.000000000000e+00 -6.296802817997e-02 0.000000000000e+00 0.000000000000e+00 -5.389615249570e-02 0.000000000000e+00 0.000000000000e+00 -5.109641430245e-02 0.000000000000e+00 0.000000000000e+00 -4.829667650434e-02 0.000000000000e+00 0.000000000000e+00 -4.549693891836e-02 0.000000000000e+00 0.000000000000e+00 -4.269720170466e-02 0.000000000000e+00 0.000000000000e+00 -3.989746545189e-02 0.000000000000e+00 0.000000000000e+00 -3.709773128099e-02 0.000000000000e+00 0.000000000000e+00 -3.429800096920e-02 0.000000000000e+00 0.000000000000e+00 -3.149827707600e-02 0.000000000000e+00 0.000000000000e+00 -2.869856312748e-02 9.891746291197e-08 0.000000000000e+00 -2.869867822978e-02 1.982375936557e-07 0.000000000000e+00 -2.869879607265e-02 2.980693064427e-07 0.000000000000e+00 -2.869891774741e-02 3.977557704787e-07 0.000000000000e+00 -2.869904510209e-02 4.952933045723e-07 0.000000000000e+00 -2.869918063880e-02 5.866936872763e-07 0.000000000000e+00 -2.869932708135e-02 6.655555216446e-07 0.000000000000e+00 -2.869948627508e-02 7.238933538921e-07 0.000000000000e+00 -2.869965721137e-02 7.555445191845e-07 0.000000000000e+00 -2.869983395964e-02 7.617721658623e-07 0.000000000000e+00 -2.870000642645e-02 7.535983429738e-07 0.000000000000e+00 -2.870016582777e-02 6.170429912728e-08 0.000000000000e+00 -3.052166652008e-02 2.738504579244e-08 0.000000000000e+00 -5.486141534231e-02 7.255496321139e-07 0.000000000000e+00 -3.092334977864e-02 6.231453260910e-08 0.000000000000e+00 -5.442703809275e-02 7.146542217372e-08 0.000000000000e+00 -3.274772309225e-02 1.363750722962e-07 0.000000000000e+00 -3.096063485044e-02 3.763457936424e-08 0.000000000000e+00 -5.258846877893e-02 7.271736557912e-07 0.000000000000e+00 -3.079590122868e-02 6.990547127920e-07 0.000000000000e+00 -3.330647448413e-02 7.038763261008e-07 0.000000000000e+00 -3.253201817797e-02 7.192165952676e-07 0.000000000000e+00 -3.093012163826e-02 6.906629232841e-07 0.000000000000e+00 -3.298508865027e-02 6.962049369882e-07 0.000000000000e+00 -3.103513102295e-02 6.545262390366e-07 0.000000000000e+00 -3.105558222102e-02 5.945079753263e-07 0.000000000000e+00 -3.107727498344e-02 5.185809177601e-07 0.000000000000e+00 -3.119103800196e-02 4.298550034089e-07 0.000000000000e+00 -3.137234731805e-02 3.309781834272e-07 0.000000000000e+00 -3.153609717655e-02 2.299269516669e-07 0.000000000000e+00 -3.139556680161e-02 6.699512486410e-07 0.000000000000e+00 -3.593389495199e-02 6.743924533670e-07 0.000000000000e+00 -3.464569336686e-02 6.393167254806e-07 0.000000000000e+00 -3.877676786086e-02 6.105680859920e-07 0.000000000000e+00 -4.166415097868e-02 5.840804111339e-07 0.000000000000e+00 -4.450587595596e-02 5.571250557753e-07 0.000000000000e+00 -4.739292446192e-02 5.284246918119e-07 0.000000000000e+00 -5.048012251850e-02 5.031710807514e-07 0.000000000000e+00 -5.366428231558e-02 4.560297325996e-07 0.000000000000e+00 -5.312085780494e-02 3.988053729824e-07 0.000000000000e+00 -5.408358277165e-02 3.600525497496e-07 0.000000000000e+00 -5.449442029929e-02 3.277526373757e-07 0.000000000000e+00 -5.446639790435e-02 2.949903429940e-07 0.000000000000e+00 -5.435259519169e-02 2.599937324526e-07 0.000000000000e+00 -5.429278208643e-02 2.231362649129e-07 0.000000000000e+00 -5.430892250177e-02 1.853921196268e-07 0.000000000000e+00 -5.433018875089e-02 1.465501230047e-07 0.000000000000e+00 -5.429714699847e-02 1.051466643098e-07 0.000000000000e+00 -5.423720881168e-02 5.006801673015e-07 0.000000000000e+00 -4.931047964984e-02 4.401444367247e-07 0.000000000000e+00 -5.091851172580e-02 3.949600360889e-07 0.000000000000e+00 -5.257828219828e-02 3.701667478050e-07 0.000000000000e+00 -5.244899511940e-02 5.364858026062e-07 0.000000000000e+00 -4.626914687407e-02 5.655308312225e-07 0.000000000000e+00 -4.351663146499e-02 5.958348034990e-07 0.000000000000e+00 -4.059210860274e-02 3.418785400800e-07 0.000000000000e+00 -5.211514261764e-02 6.348334538935e-07 0.000000000000e+00 -3.747458774487e-02 7.485757860606e-08 0.000000000000e+00 -3.550343469979e-02 7.108340564070e-08 0.000000000000e+00 -3.839660555076e-02 6.400046903717e-08 0.000000000000e+00 -4.126712759044e-02 5.712828036275e-08 0.000000000000e+00 -4.408262371285e-02 5.152095044762e-08 0.000000000000e+00 -4.689040748734e-02 4.642191526662e-08 0.000000000000e+00 -4.976685472878e-02 9.051994123197e-08 0.000000000000e+00 -5.147621774116e-02 6.672519226557e-07 0.000000000000e+00 -3.336382979717e-02 6.437730521180e-07 0.000000000000e+00 -3.564238800235e-02 3.075227607187e-07 0.000000000000e+00 -5.185608909529e-02 2.673732206257e-07 0.000000000000e+00 -5.185362155459e-02 2.256755517868e-07 0.000000000000e+00 -5.198794613933e-02 1.848877490637e-07 0.000000000000e+00 -5.199318435158e-02 1.422789945801e-07 0.000000000000e+00 -5.182424092152e-02 1.536559160051e-07 0.000000000000e+00 -3.369428417258e-02 1.511351688392e-07 0.000000000000e+00 -3.677035947901e-02 1.352994519520e-07 0.000000000000e+00 -3.982274752756e-02 1.195691733472e-07 0.000000000000e+00 -4.268328850657e-02 1.070569905988e-07 0.000000000000e+00 -4.543945057516e-02 9.804133083141e-08 0.000000000000e+00 -4.824295816963e-02 1.421339699397e-07 0.000000000000e+00 -4.923195452465e-02 1.845284147612e-07 0.000000000000e+00 -4.969930705695e-02 1.501688886893e-07 0.000000000000e+00 -4.663680222424e-02 1.877807968596e-07 0.000000000000e+00 -4.749220947851e-02 1.651345618610e-07 0.000000000000e+00 -4.407488331001e-02 2.003879480104e-07 0.000000000000e+00 -4.531267585548e-02 2.255182071045e-07 0.000000000000e+00 -4.981217483550e-02 2.246187078864e-07 0.000000000000e+00 -4.782957572540e-02 2.245266603288e-07 0.000000000000e+00 -4.622335432044e-02 1.873329993771e-07 0.000000000000e+00 -4.138381050873e-02 2.250167807273e-07 0.000000000000e+00 -4.296488644404e-02 2.491809208085e-07 0.000000000000e+00 -4.446266892359e-02 2.686028855255e-07 0.000000000000e+00 -4.962971667495e-02 2.647040512398e-07 0.000000000000e+00 -4.773244443274e-02 2.604169121122e-07 0.000000000000e+00 -4.601029608746e-02 2.161456541624e-07 0.000000000000e+00 -3.840783032118e-02 2.600448375035e-07 0.000000000000e+00 -4.032511746007e-02 2.859530753527e-07 0.000000000000e+00 -4.221420490487e-02 2.520905355969e-07 0.000000000000e+00 -3.477584247891e-02 3.634074574555e-07 0.000000000000e+00 -3.426701901756e-02 4.538531070737e-07 0.000000000000e+00 -3.384060187391e-02 5.292188468528e-07 0.000000000000e+00 -3.346242419107e-02 3.053219854552e-07 0.000000000000e+00 -3.735316572501e-02 3.355394590871e-07 0.000000000000e+00 -3.961936044453e-02 5.878927265074e-07 0.000000000000e+00 -3.336350534879e-02 6.327668208930e-07 0.000000000000e+00 -3.346566519924e-02 3.932824102265e-07 0.000000000000e+00 -3.672416217890e-02 4.722647176693e-07 0.000000000000e+00 -3.603700055448e-02 5.322665894459e-07 0.000000000000e+00 -3.527968872889e-02 5.660039169509e-07 0.000000000000e+00 -3.585468214504e-02 3.206880811980e-07 0.000000000000e+00 -4.905581981200e-02 2.974129046783e-07 0.000000000000e+00 -4.404594723077e-02 3.010558997077e-07 0.000000000000e+00 -4.577224556099e-02 3.071079445710e-07 0.000000000000e+00 -4.734943742789e-02 3.451030393530e-07 0.000000000000e+00 -4.187257210509e-02 4.148468821230e-07 0.000000000000e+00 -3.923983319470e-02 4.967530791431e-07 0.000000000000e+00 -3.769653809220e-02 3.406338622209e-07 0.000000000000e+00 -4.396049426553e-02 3.345330633862e-07 0.000000000000e+00 -4.555821406920e-02 3.510954926571e-07 0.000000000000e+00 -4.636914157369e-02 3.916156199753e-07 0.000000000000e+00 -4.218158447808e-02 4.539997251092e-07 0.000000000000e+00 -4.057746470838e-02 3.714880916070e-07 0.000000000000e+00 -4.436504876318e-02 4.179709572687e-07 0.000000000000e+00 -4.311106062287e-02 3.614358996319e-07 0.000000000000e+00 -4.948091662744e-02 3.804533053965e-07 0.000000000000e+00 -4.688245735443e-02 3.905794015219e-07 0.000000000000e+00 -4.503852885041e-02 3.910233624608e-07 0.000000000000e+00 -5.009811846403e-02 4.070229794216e-07 0.000000000000e+00 -5.094959461669e-02 6.053156715687e-07 0.000000000000e+00 -3.613117434909e-02 5.797694107241e-07 0.000000000000e+00 -3.926103955567e-02 5.416658901240e-07 0.000000000000e+00 -4.286725425006e-02 5.236243576881e-07 0.000000000000e+00 -4.520904307167e-02 4.876763667588e-07 0.000000000000e+00 -4.768678514037e-02 4.396864825836e-07 0.000000000000e+00 -4.870880184357e-02 4.860010402629e-07 0.000000000000e+00 -4.571355403142e-02 5.260237020011e-07 0.000000000000e+00 -3.921195472955e-02 4.656012109337e-07 0.000000000000e+00 -4.205729288143e-02 4.300863930204e-07 0.000000000000e+00 -4.448240089403e-02 4.949398894827e-07 0.000000000000e+00 -4.292583832072e-02 4.265319050725e-07 0.000000000000e+00 -4.689813291618e-02 0.000000000000e+00 0.000000000000e+00 -2.582857864886e-02 0.000000000000e+00 0.000000000000e+00 -2.295861496143e-02 0.000000000000e+00 0.000000000000e+00 -2.008867797349e-02 0.000000000000e+00 0.000000000000e+00 -1.721877283874e-02 0.000000000000e+00 0.000000000000e+00 -1.434890294544e-02 0.000000000000e+00 0.000000000000e+00 -1.147906901806e-02 0.000000000000e+00 0.000000000000e+00 -8.609268495638e-03 0.000000000000e+00 0.000000000000e+00 -5.739495717107e-03 0.000000000000e+00 0.000000000000e+00 -2.869742726102e-03 0.000000000000e+00 0.000000000000e+00 0.000000000000e+00 2.414996825263e-08 0.000000000000e+00 0.000000000000e+00 5.047993253177e-08 0.000000000000e+00 0.000000000000e+00 8.165704457814e-08 0.000000000000e+00 0.000000000000e+00 1.216330146243e-07 0.000000000000e+00 0.000000000000e+00 1.768447752880e-07 0.000000000000e+00 0.000000000000e+00 2.574387017642e-07 0.000000000000e+00 0.000000000000e+00 3.776354270756e-07 0.000000000000e+00 0.000000000000e+00 5.514293980144e-07 0.000000000000e+00 0.000000000000e+00 7.797997050324e-07 0.000000000000e+00 0.000000000000e+00 1.565910196767e-08 0.000000000000e+00 -1.855774274834e-03 6.476700015068e-08 0.000000000000e+00 -2.688155510303e-02 8.662885233619e-07 0.000000000000e+00 -2.158919561025e-03 1.442232260788e-07 0.000000000000e+00 -2.652237400603e-02 9.135292331127e-07 0.000000000000e+00 -4.407947938470e-03 2.125968264538e-08 0.000000000000e+00 -4.113636030688e-03 3.613065831618e-08 0.000000000000e+00 -2.290034345536e-03 7.953806047993e-08 0.000000000000e+00 -2.465689178379e-02 6.551492412798e-07 0.000000000000e+00 -2.141441703572e-03 7.403840923489e-07 0.000000000000e+00 -3.796410796789e-03 9.409581634693e-07 0.000000000000e+00 -6.842965693264e-03 7.193130183129e-07 0.000000000000e+00 -5.820469378979e-03 9.828303423944e-07 0.000000000000e+00 -9.435840241858e-03 1.121633546156e-06 0.000000000000e+00 -1.211121528418e-02 1.018787728108e-06 0.000000000000e+00 -1.481070700134e-02 9.224502719806e-07 0.000000000000e+00 -1.744156589600e-02 8.710168872544e-07 0.000000000000e+00 -1.992269267821e-02 8.380931291124e-07 0.000000000000e+00 -2.241311645889e-02 8.016589742048e-07 0.000000000000e+00 -2.554451369821e-02 4.659282684171e-07 0.000000000000e+00 -2.444383886110e-03 5.719360722255e-07 0.000000000000e+00 -4.454943794424e-03 3.193473194682e-07 0.000000000000e+00 -2.628975958777e-03 2.204959134826e-07 0.000000000000e+00 -2.660974812053e-03 1.539397939895e-07 0.000000000000e+00 -2.778242124073e-03 1.046353018969e-07 0.000000000000e+00 -2.906797596262e-03 6.582058496589e-08 0.000000000000e+00 -2.732770280065e-03 2.438146387000e-07 0.000000000000e+00 -2.627509617340e-02 3.507039450118e-07 0.000000000000e+00 -2.619539323279e-02 4.588368344084e-07 0.000000000000e+00 -2.621290821532e-02 5.642908772122e-07 0.000000000000e+00 -2.624449560652e-02 6.622709258962e-07 0.000000000000e+00 -2.625989303941e-02 7.442417923847e-07 0.000000000000e+00 -2.624841998628e-02 7.985846833709e-07 0.000000000000e+00 -2.619511018665e-02 8.171264600847e-07 0.000000000000e+00 -2.603556557017e-02 8.699684757633e-07 0.000000000000e+00 -2.337849534382e-02 9.075827124801e-07 0.000000000000e+00 -2.126189339517e-02 8.735428558427e-07 0.000000000000e+00 -2.367770472577e-02 9.437937146091e-07 0.000000000000e+00 -2.130868963589e-02 8.264716668927e-07 0.000000000000e+00 -2.378216745023e-02 9.896456702263e-07 0.000000000000e+00 -1.926296835458e-02 9.136843904971e-07 0.000000000000e+00 -2.132563844724e-02 7.390293188042e-07 0.000000000000e+00 -2.382241785411e-02 8.151966050478e-07 0.000000000000e+00 -2.137555917573e-02 6.319214972507e-07 0.000000000000e+00 -2.381334265700e-02 5.180688049253e-07 0.000000000000e+00 -2.375437959642e-02 6.934873924802e-07 0.000000000000e+00 -2.140630023069e-02 4.025273346766e-07 0.000000000000e+00 -2.366303979519e-02 5.701248072783e-07 0.000000000000e+00 -2.135010899514e-02 4.498013085136e-07 0.000000000000e+00 -2.120999646422e-02 1.129685514650e-06 0.000000000000e+00 -1.670981763931e-02 9.751899574217e-07 0.000000000000e+00 -1.387720572936e-02 6.785673994360e-07 0.000000000000e+00 -1.104060559213e-02 6.930102363841e-07 0.000000000000e+00 -8.340930960510e-03 5.345838622777e-07 0.000000000000e+00 -7.078712397453e-03 1.012508887548e-06 0.000000000000e+00 -1.890314929587e-02 8.864200791524e-07 0.000000000000e+00 -1.885177144671e-02 7.390111809572e-07 0.000000000000e+00 -1.900564913744e-02 6.067551395264e-07 0.000000000000e+00 -1.901690372478e-02 4.840013564289e-07 0.000000000000e+00 -1.885824922086e-02 2.860915318886e-07 0.000000000000e+00 -2.360751141923e-02 3.308869268509e-07 0.000000000000e+00 -2.097541838928e-02 3.709318160549e-07 0.000000000000e+00 -1.862998546236e-02 1.752969558896e-07 0.000000000000e+00 -2.391698129744e-02 2.989533297672e-08 0.000000000000e+00 -6.883977191846e-03 4.119213236904e-08 0.000000000000e+00 -9.775746250879e-03 5.514304881064e-08 0.000000000000e+00 -1.269196811848e-02 7.120405907579e-08 0.000000000000e+00 -1.566040189008e-02 8.689470211851e-08 0.000000000000e+00 -1.874058450135e-02 9.062338415827e-08 0.000000000000e+00 -2.182850404069e-02 2.001682769431e-07 0.000000000000e+00 -2.060440371157e-02 1.602640599040e-07 0.000000000000e+00 -1.703238269315e-02 2.636099476192e-07 0.000000000000e+00 -1.811820326163e-02 1.256691680126e-07 0.000000000000e+00 -1.391853384527e-02 9.432037450468e-08 0.000000000000e+00 -1.095737873206e-02 7.045569776262e-08 0.000000000000e+00 -8.021397196647e-03 5.106416195775e-08 0.000000000000e+00 -5.034464852297e-03 9.245019667899e-07 0.000000000000e+00 -1.591971058265e-02 7.422968663165e-07 0.000000000000e+00 -1.652285860539e-02 6.160930024449e-07 0.000000000000e+00 -1.680464417775e-02 4.997192889833e-07 0.000000000000e+00 -1.663254607643e-02 6.732341488911e-07 0.000000000000e+00 -1.263664436537e-02 6.517081775660e-07 0.000000000000e+00 -1.389199256391e-02 5.444029485614e-07 0.000000000000e+00 -9.821546958201e-03 5.124254985015e-07 0.000000000000e+00 -1.124500257594e-02 5.768343399957e-07 0.000000000000e+00 -1.461786025368e-02 5.056891164559e-07 0.000000000000e+00 -1.499413994441e-02 4.937773365720e-07 0.000000000000e+00 -1.238556311081e-02 4.506067074125e-07 0.000000000000e+00 -1.308651516718e-02 4.336743169401e-07 0.000000000000e+00 -8.583753576183e-03 4.088480971031e-07 0.000000000000e+00 -1.015072578629e-02 4.041204279487e-07 0.000000000000e+00 -1.132238971069e-02 3.857907384221e-07 0.000000000000e+00 -1.628034516112e-02 3.885019627038e-07 0.000000000000e+00 -1.381730915876e-02 3.008948466290e-07 0.000000000000e+00 -1.631764632483e-02 2.134770610795e-07 0.000000000000e+00 -1.513770703049e-02 1.638214944838e-07 0.000000000000e+00 -1.202015992633e-02 1.182958320773e-07 0.000000000000e+00 -9.308910393846e-03 9.897318737070e-08 0.000000000000e+00 -6.164726549291e-03 1.513463399794e-07 0.000000000000e+00 -5.774743177253e-03 2.057689768900e-07 0.000000000000e+00 -5.350170349969e-03 1.778164890405e-07 0.000000000000e+00 -9.384764282103e-03 2.786084209495e-07 0.000000000000e+00 -5.238090157614e-03 3.992350042037e-07 0.000000000000e+00 -5.455179983714e-03 3.403383750224e-07 0.000000000000e+00 -7.769446654483e-03 3.371326508373e-07 0.000000000000e+00 -9.618998293735e-03 2.697273513907e-07 0.000000000000e+00 -7.593964386227e-03 2.207705053283e-07 0.000000000000e+00 -8.090120386062e-03 2.868970033866e-07 0.000000000000e+00 -9.521314419634e-03 2.768459165146e-07 0.000000000000e+00 -1.093413394411e-02 2.686193077956e-07 0.000000000000e+00 -1.341333560188e-02 3.532677984936e-07 0.000000000000e+00 -1.138295139596e-02 6.928378487108e-07 0.000000000000e+00 -4.204422269426e-02 7.228154293182e-07 0.000000000000e+00 -4.204424815987e-02 7.519515921629e-07 0.000000000000e+00 -4.204427178183e-02 7.788750167439e-07 0.000000000000e+00 -4.204429435619e-02 8.022740261601e-07 0.000000000000e+00 -4.204431651840e-02 8.211154551831e-07 0.000000000000e+00 -4.204433876729e-02 8.347043521416e-07 0.000000000000e+00 -4.204436144460e-02 8.426819818655e-07 0.000000000000e+00 -4.204438474352e-02 8.449763801646e-07 0.000000000000e+00 -4.204440872039e-02 8.417203895841e-07 0.000000000000e+00 -4.204443332115e-02 8.331811394383e-07 0.000000000000e+00 -4.204445841133e-02 8.197039072132e-07 0.000000000000e+00 -4.204448380648e-02 8.016705332832e-07 0.000000000000e+00 -4.204450929579e-02 7.794722960279e-07 0.000000000000e+00 -4.204453465815e-02 7.534919832518e-07 0.000000000000e+00 -4.204455967735e-02 7.240931959774e-07 0.000000000000e+00 -4.204458414884e-02 6.916155254736e-07 0.000000000000e+00 -4.204460788419e-02 6.563725099481e-07 0.000000000000e+00 -4.204463071493e-02 6.186522351944e-07 0.000000000000e+00 -4.204465249077e-02 5.787190830320e-07 0.000000000000e+00 -4.204467308028e-02 5.368153967653e-07 0.000000000000e+00 -4.204469237028e-02 4.931641385685e-07 0.000000000000e+00 -4.204471026251e-02 4.479712946300e-07 0.000000000000e+00 -4.204472667414e-02 4.014274948380e-07 0.000000000000e+00 -4.204474153499e-02 3.537102332034e-07 0.000000000000e+00 -4.204475478540e-02 3.049871813352e-07 0.000000000000e+00 -4.204476637608e-02 2.554173370562e-07 0.000000000000e+00 -4.204477626565e-02 2.051522055316e-07 0.000000000000e+00 -4.204478442149e-02 1.543386362398e-07 0.000000000000e+00 -4.204479081893e-02 1.031186539905e-07 0.000000000000e+00 -4.204479543709e-02 5.162792056501e-08 0.000000000000e+00 -4.204479826253e-02 0.000000000000e+00 0.000000000000e+00 -4.204479928837e-02 0.000000000000e+00 0.000000000000e+00 -4.497508348454e-02 0.000000000000e+00 0.000000000000e+00 -4.790537366221e-02 0.000000000000e+00 0.000000000000e+00 -5.083567011161e-02 0.000000000000e+00 0.000000000000e+00 -5.376597310691e-02 3.017261315244e-08 0.000000000000e+00 -5.480181549616e-02 3.395160303986e-08 0.000000000000e+00 -4.397622615454e-02 6.405849229001e-07 0.000000000000e+00 -5.440057608421e-02 7.576766611263e-08 0.000000000000e+00 -4.443329999004e-02 6.781029803465e-08 0.000000000000e+00 -5.440096808225e-02 6.800069572867e-07 0.000000000000e+00 -5.455345252776e-02 3.912627973249e-08 0.000000000000e+00 -5.244580914718e-02 4.193235301981e-08 0.000000000000e+00 -4.638029041931e-02 6.456321500399e-07 0.000000000000e+00 -5.192496527722e-02 6.706783350031e-07 0.000000000000e+00 -5.277810564603e-02 7.173993211083e-07 0.000000000000e+00 -5.440027659498e-02 7.015785699340e-07 0.000000000000e+00 -5.236082774101e-02 7.492546188564e-07 0.000000000000e+00 -5.419883943994e-02 7.723208720822e-07 0.000000000000e+00 -5.413862124198e-02 7.858839818270e-07 0.000000000000e+00 -5.418521097479e-02 7.914330778693e-07 0.000000000000e+00 -5.420136923269e-02 7.902016407717e-07 0.000000000000e+00 -5.422014664237e-02 7.832949932925e-07 0.000000000000e+00 -5.423504766139e-02 7.716311935881e-07 0.000000000000e+00 -5.424500384261e-02 7.559128331215e-07 0.000000000000e+00 -5.425095514242e-02 7.366809742277e-07 0.000000000000e+00 -5.425407457000e-02 7.143576500508e-07 0.000000000000e+00 -5.425533532089e-02 6.892793838381e-07 0.000000000000e+00 -5.425550935068e-02 6.617233667671e-07 0.000000000000e+00 -5.425505275426e-02 6.319218759976e-07 0.000000000000e+00 -5.425428974081e-02 6.000761895075e-07 0.000000000000e+00 -5.425347059324e-02 5.663662668789e-07 0.000000000000e+00 -5.425273797977e-02 5.309545920155e-07 0.000000000000e+00 -5.425231205940e-02 4.939876511907e-07 0.000000000000e+00 -5.425234730601e-02 4.556002089717e-07 0.000000000000e+00 -5.425307519074e-02 4.159176852784e-07 0.000000000000e+00 -5.425476729517e-02 3.750518309053e-07 0.000000000000e+00 -5.425764234539e-02 3.331140237074e-07 0.000000000000e+00 -5.426182234361e-02 2.902764826441e-07 0.000000000000e+00 -5.426643320723e-02 2.468965788618e-07 0.000000000000e+00 -5.425326940312e-02 2.009243125855e-07 0.000000000000e+00 -5.405343408781e-02 1.564015133667e-07 0.000000000000e+00 -5.444489690041e-02 1.131174941771e-07 0.000000000000e+00 -5.431971621661e-02 6.598386874917e-07 0.000000000000e+00 -4.912273102717e-02 6.834285339511e-07 0.000000000000e+00 -5.065546003407e-02 6.827964848691e-07 0.000000000000e+00 -4.554745917338e-02 7.256958263038e-07 0.000000000000e+00 -4.487106367959e-02 7.015213755834e-07 0.000000000000e+00 -4.787595195719e-02 7.570847734271e-07 0.000000000000e+00 -4.453233374156e-02 7.824433672392e-07 0.000000000000e+00 -4.433474051304e-02 8.024372558474e-07 0.000000000000e+00 -4.427077710330e-02 8.173513139594e-07 0.000000000000e+00 -4.432547037361e-02 8.271762102293e-07 0.000000000000e+00 -4.440027939190e-02 8.315238443012e-07 0.000000000000e+00 -4.444277905500e-02 8.302704547309e-07 0.000000000000e+00 -4.446530026372e-02 8.236674733732e-07 0.000000000000e+00 -4.447744013593e-02 8.120832589675e-07 0.000000000000e+00 -4.448394591739e-02 7.959195705393e-07 0.000000000000e+00 -4.448717270763e-02 7.755792870020e-07 0.000000000000e+00 -4.448835071647e-02 7.514496021756e-07 0.000000000000e+00 -4.448828581881e-02 7.238941617785e-07 0.000000000000e+00 -4.448762806744e-02 6.932511347679e-07 0.000000000000e+00 -4.448672522119e-02 6.598318482472e-07 0.000000000000e+00 -4.448575172743e-02 6.239190168183e-07 0.000000000000e+00 -4.448487205176e-02 5.857690007122e-07 0.000000000000e+00 -4.448426686798e-02 5.456154611322e-07 0.000000000000e+00 -4.448412938829e-02 5.036699213914e-07 0.000000000000e+00 -4.448465941062e-02 4.601201051004e-07 0.000000000000e+00 -4.448594747696e-02 4.151288928651e-07 0.000000000000e+00 -4.448755205388e-02 3.688455710941e-07 0.000000000000e+00 -4.448734843331e-02 3.214883808104e-07 0.000000000000e+00 -4.447859167034e-02 2.736875805338e-07 0.000000000000e+00 -4.444535046341e-02 2.260092129243e-07 0.000000000000e+00 -4.441299951678e-02 1.776971510589e-07 0.000000000000e+00 -4.446178188923e-02 1.268889875543e-07 0.000000000000e+00 -4.458708296054e-02 9.642058080135e-08 0.000000000000e+00 -4.755804400703e-02 9.181686876150e-08 0.000000000000e+00 -5.143626389363e-02 4.495120538188e-08 0.000000000000e+00 -4.942719088843e-02 7.349363927619e-07 0.000000000000e+00 -5.191092567478e-02 7.186808485314e-07 0.000000000000e+00 -4.987644082712e-02 7.367852761663e-07 0.000000000000e+00 -4.719008908910e-02 7.649022451928e-07 0.000000000000e+00 -4.672022544406e-02 7.862204591521e-07 0.000000000000e+00 -4.640831312957e-02 7.499128593508e-07 0.000000000000e+00 -4.927503325321e-02 7.736338902162e-07 0.000000000000e+00 -4.859700318454e-02 8.015198820372e-07 0.000000000000e+00 -4.647838433586e-02 7.889394906915e-07 0.000000000000e+00 -4.806509240575e-02 7.654450776579e-07 0.000000000000e+00 -5.136795914916e-02 7.828650221850e-07 0.000000000000e+00 -4.976284340737e-02 7.847969371848e-07 0.000000000000e+00 -5.170423778096e-02 8.125951052694e-07 0.000000000000e+00 -4.672296958157e-02 7.974186468095e-07 0.000000000000e+00 -4.909132404691e-02 7.960413226848e-07 0.000000000000e+00 -5.168887173596e-02 8.071591197517e-07 0.000000000000e+00 -4.922489181097e-02 8.002009525861e-07 0.000000000000e+00 -5.173208579893e-02 7.979576922403e-07 0.000000000000e+00 -5.176671993244e-02 7.902785750814e-07 0.000000000000e+00 -5.178943395435e-02 8.189925689470e-07 0.000000000000e+00 -4.682650149226e-02 8.095619491996e-07 0.000000000000e+00 -4.929293930428e-02 8.195558904228e-07 0.000000000000e+00 -4.687723411322e-02 8.060524109784e-07 0.000000000000e+00 -4.933089025171e-02 8.146064530740e-07 0.000000000000e+00 -4.690426360173e-02 7.973390955269e-07 0.000000000000e+00 -4.935276344318e-02 8.046004759935e-07 0.000000000000e+00 -4.691904643793e-02 7.779064082399e-07 0.000000000000e+00 -5.180296696301e-02 7.839929076076e-07 0.000000000000e+00 -4.936483682202e-02 7.899961714946e-07 0.000000000000e+00 -4.692680734619e-02 7.712284320411e-07 0.000000000000e+00 -4.693056372407e-02 7.486999694734e-07 0.000000000000e+00 -4.693148590587e-02 7.227778327034e-07 0.000000000000e+00 -4.693097230394e-02 6.937963094437e-07 0.000000000000e+00 -4.692980486814e-02 6.620624705068e-07 0.000000000000e+00 -4.692830498583e-02 6.278522678332e-07 0.000000000000e+00 -4.692679235037e-02 5.914104583666e-07 0.000000000000e+00 -4.692560528099e-02 5.529599098089e-07 0.000000000000e+00 -4.692503177399e-02 5.127043329495e-07 0.000000000000e+00 -4.692541905570e-02 4.708197681901e-07 0.000000000000e+00 -4.692705390748e-02 4.274512239235e-07 0.000000000000e+00 -4.692988231931e-02 3.827039753134e-07 0.000000000000e+00 -4.693273062325e-02 3.366354823581e-07 0.000000000000e+00 -4.693110059558e-02 2.893883586138e-07 0.000000000000e+00 -4.690782728593e-02 2.434582459281e-07 0.000000000000e+00 -4.676734835400e-02 1.995366566888e-07 0.000000000000e+00 -4.669514163776e-02 1.533826378835e-07 0.000000000000e+00 -4.696803091083e-02 1.392470850130e-07 0.000000000000e+00 -4.965249723970e-02 1.412733581616e-07 0.000000000000e+00 -5.223115773296e-02 1.797595750560e-07 0.000000000000e+00 -4.883275487894e-02 1.720887452200e-07 0.000000000000e+00 -5.085892161756e-02 1.742156735094e-07 0.000000000000e+00 -5.265323534043e-02 2.160783661388e-07 0.000000000000e+00 -4.869933907209e-02 1.976808760501e-07 0.000000000000e+00 -5.008857833484e-02 1.998353931334e-07 0.000000000000e+00 -5.166302656729e-02 2.331367505770e-07 0.000000000000e+00 -5.193779449631e-02 2.203791855982e-07 0.000000000000e+00 -5.036396797560e-02 2.752336084414e-07 0.000000000000e+00 -5.185125802649e-02 7.614357487616e-07 0.000000000000e+00 -5.181037429581e-02 7.665121031597e-07 0.000000000000e+00 -4.937072366723e-02 7.413459147588e-07 0.000000000000e+00 -5.181382406281e-02 7.453292870544e-07 0.000000000000e+00 -4.937312167983e-02 7.180332674429e-07 0.000000000000e+00 -5.181488401662e-02 6.918294563949e-07 0.000000000000e+00 -5.181474409768e-02 7.208237388931e-07 0.000000000000e+00 -4.937327683990e-02 6.933222722707e-07 0.000000000000e+00 -4.937258082803e-02 6.631245182307e-07 0.000000000000e+00 -4.937126442830e-02 6.630291705733e-07 0.000000000000e+00 -5.181354482437e-02 6.318680272417e-07 0.000000000000e+00 -5.181225559203e-02 6.305022372404e-07 0.000000000000e+00 -4.936957206718e-02 5.985781230011e-07 0.000000000000e+00 -5.181092700412e-02 5.633499771643e-07 0.000000000000e+00 -5.180989796519e-02 5.956855878218e-07 0.000000000000e+00 -4.936817330347e-02 5.588777507909e-07 0.000000000000e+00 -4.936726754234e-02 5.202765444302e-07 0.000000000000e+00 -4.936719882022e-02 5.263745503976e-07 0.000000000000e+00 -5.180968431796e-02 4.877922323469e-07 0.000000000000e+00 -5.181014613732e-02 4.800574499588e-07 0.000000000000e+00 -4.936851020529e-02 4.383510147069e-07 0.000000000000e+00 -4.937123462503e-02 4.477577152707e-07 0.000000000000e+00 -5.181210200560e-02 4.063812742696e-07 0.000000000000e+00 -5.181548290331e-02 3.637556796974e-07 0.000000000000e+00 -5.182077480538e-02 3.952688899806e-07 0.000000000000e+00 -4.937544341091e-02 3.508287394342e-07 0.000000000000e+00 -4.938070858542e-02 3.047628576720e-07 0.000000000000e+00 -4.938809032386e-02 3.199486780042e-07 0.000000000000e+00 -5.182856310800e-02 2.548567076925e-07 0.000000000000e+00 -4.941735134498e-02 1.085920756343e-06 0.000000000000e+00 -1.430993151173e-02 1.128119292729e-06 0.000000000000e+00 -1.431009477165e-02 1.160992037318e-06 0.000000000000e+00 -1.431022954054e-02 1.183739050028e-06 0.000000000000e+00 -1.431034331919e-02 1.197346867203e-06 0.000000000000e+00 -1.431044038869e-02 1.202843576926e-06 0.000000000000e+00 -1.431052366919e-02 1.201244491141e-06 0.000000000000e+00 -1.431059535654e-02 1.193489541189e-06 0.000000000000e+00 -1.431065718257e-02 1.180366251239e-06 0.000000000000e+00 -1.431071060559e-02 1.162497398329e-06 0.000000000000e+00 -1.431075687399e-02 1.140386084431e-06 0.000000000000e+00 -1.431079706296e-02 1.114442911347e-06 0.000000000000e+00 -1.431083209092e-02 1.085004997487e-06 0.000000000000e+00 -1.431086273550e-02 1.052351955474e-06 0.000000000000e+00 -1.431088965193e-02 1.016721928911e-06 0.000000000000e+00 -1.431091338977e-02 9.783267025939e-07 0.000000000000e+00 -1.431093440852e-02 9.373604670780e-07 0.000000000000e+00 -1.431095308992e-02 8.940030867579e-07 0.000000000000e+00 -1.431096974803e-02 8.484244915133e-07 0.000000000000e+00 -1.431098464095e-02 8.007881483213e-07 0.000000000000e+00 -1.431099797955e-02 7.512518562808e-07 0.000000000000e+00 -1.431100993526e-02 6.999694722735e-07 0.000000000000e+00 -1.431102064713e-02 6.470916030541e-07 0.000000000000e+00 -1.431103022722e-02 5.927648100625e-07 0.000000000000e+00 -1.431103876513e-02 5.371322910371e-07 0.000000000000e+00 -1.431104633218e-02 4.803346702295e-07 0.000000000000e+00 -1.431105298480e-02 4.225091815502e-07 0.000000000000e+00 -1.431105876748e-02 3.637897846204e-07 0.000000000000e+00 -1.431106371502e-02 3.043085774203e-07 0.000000000000e+00 -1.431106785431e-02 2.441964648423e-07 0.000000000000e+00 -1.431107120572e-02 1.835835119492e-07 0.000000000000e+00 -1.431107378473e-02 1.225978261904e-07 0.000000000000e+00 -1.431107560239e-02 6.136278984169e-08 0.000000000000e+00 -1.431107666655e-02 0.000000000000e+00 0.000000000000e+00 -1.431107698101e-02 0.000000000000e+00 0.000000000000e+00 -1.708443472963e-02 0.000000000000e+00 0.000000000000e+00 -1.985779482103e-02 0.000000000000e+00 0.000000000000e+00 -2.263115760128e-02 0.000000000000e+00 0.000000000000e+00 -2.540452340491e-02 0.000000000000e+00 0.000000000000e+00 -2.817789256071e-02 0.000000000000e+00 0.000000000000e+00 -3.095126538590e-02 0.000000000000e+00 0.000000000000e+00 -3.372464218530e-02 0.000000000000e+00 0.000000000000e+00 -3.649802325073e-02 0.000000000000e+00 0.000000000000e+00 -3.927140886114e-02 3.337943706856e-08 0.000000000000e+00 -4.023907876927e-02 4.008701868989e-08 0.000000000000e+00 -1.613073614903e-02 6.990144656325e-07 0.000000000000e+00 -3.984354882909e-02 8.955867973496e-08 0.000000000000e+00 -1.656394617005e-02 4.085553338925e-08 0.000000000000e+00 -3.803461666479e-02 7.444728558690e-08 0.000000000000e+00 -3.980521805289e-02 4.930324562837e-08 0.000000000000e+00 -1.838531385870e-02 7.223655775190e-07 0.000000000000e+00 -3.996763946664e-02 7.117122367421e-07 0.000000000000e+00 -3.748917100080e-02 7.238597581697e-07 0.000000000000e+00 -3.825550209344e-02 7.495497829447e-07 0.000000000000e+00 -3.982292173890e-02 7.471379773040e-07 0.000000000000e+00 -3.780596145716e-02 7.776532329135e-07 0.000000000000e+00 -3.968337767190e-02 8.037360730133e-07 0.000000000000e+00 -3.961384047238e-02 8.257027511638e-07 0.000000000000e+00 -3.960431160965e-02 8.424748976251e-07 0.000000000000e+00 -3.962134913489e-02 8.537187391317e-07 0.000000000000e+00 -3.963484249513e-02 8.593841914572e-07 0.000000000000e+00 -3.963345720772e-02 8.594635456988e-07 0.000000000000e+00 -3.962246395508e-02 8.540053378580e-07 0.000000000000e+00 -3.961208460443e-02 8.431941175006e-07 0.000000000000e+00 -3.960968764288e-02 8.273842199192e-07 0.000000000000e+00 -3.961622347757e-02 8.070451563113e-07 0.000000000000e+00 -3.962687718295e-02 7.826535390468e-07 0.000000000000e+00 -3.963486135924e-02 7.546078492365e-07 0.000000000000e+00 -3.963584812268e-02 7.232110786900e-07 0.000000000000e+00 -3.963106168471e-02 6.887260889327e-07 0.000000000000e+00 -3.962679340561e-02 6.514586520770e-07 0.000000000000e+00 -3.962830397328e-02 6.117569856581e-07 0.000000000000e+00 -3.963417950144e-02 5.699091997903e-07 0.000000000000e+00 -3.963926438430e-02 5.260871703143e-07 0.000000000000e+00 -3.964197109143e-02 4.804425242255e-07 0.000000000000e+00 -3.964863876168e-02 4.333699184237e-07 0.000000000000e+00 -3.967294597975e-02 3.857226655618e-07 0.000000000000e+00 -3.971297813397e-02 3.381174306599e-07 0.000000000000e+00 -3.970708696164e-02 2.896725299905e-07 0.000000000000e+00 -3.959495656431e-02 2.385900467624e-07 0.000000000000e+00 -3.941141424999e-02 1.835562150524e-07 0.000000000000e+00 -3.924361635759e-02 1.268280365445e-07 0.000000000000e+00 -3.937772403299e-02 7.289529559239e-07 0.000000000000e+00 -3.489840258987e-02 7.404186334532e-07 0.000000000000e+00 -3.618046096308e-02 7.476578893922e-07 0.000000000000e+00 -3.208688036149e-02 7.661363410806e-07 0.000000000000e+00 -2.921554252288e-02 7.852908666911e-07 0.000000000000e+00 -2.639361336046e-02 8.103683510270e-07 0.000000000000e+00 -2.354092862674e-02 8.543898911658e-07 0.000000000000e+00 -2.048727258098e-02 9.383465979458e-07 0.000000000000e+00 -1.732379939282e-02 9.911738721232e-07 0.000000000000e+00 -1.789542324106e-02 1.076699786135e-06 0.000000000000e+00 -1.696823117752e-02 1.118329409417e-06 0.000000000000e+00 -1.654833221702e-02 1.136162098397e-06 0.000000000000e+00 -1.654394330205e-02 1.143625231596e-06 0.000000000000e+00 -1.666074266977e-02 1.144622466260e-06 0.000000000000e+00 -1.677482439278e-02 1.140909905313e-06 0.000000000000e+00 -1.680039464147e-02 1.132063331738e-06 0.000000000000e+00 -1.676319082810e-02 1.117658604632e-06 0.000000000000e+00 -1.672740437490e-02 1.098159905456e-06 0.000000000000e+00 -1.670853796140e-02 1.074309984742e-06 0.000000000000e+00 -1.669207542735e-02 1.046775185390e-06 0.000000000000e+00 -1.666874754869e-02 1.015904949924e-06 0.000000000000e+00 -1.665576349002e-02 9.816448629930e-07 0.000000000000e+00 -1.667938963029e-02 9.440261403063e-07 0.000000000000e+00 -1.671799311102e-02 9.034837321959e-07 0.000000000000e+00 -1.672795249839e-02 8.604701682139e-07 0.000000000000e+00 -1.671770514344e-02 8.152954497038e-07 0.000000000000e+00 -1.670742662178e-02 7.682041195132e-07 0.000000000000e+00 -1.670205051475e-02 7.191308421027e-07 0.000000000000e+00 -1.671709268463e-02 6.678835863311e-07 0.000000000000e+00 -1.673701217589e-02 6.147367186451e-07 0.000000000000e+00 -1.672746429205e-02 5.601628709268e-07 0.000000000000e+00 -1.670378192314e-02 5.042959257121e-07 0.000000000000e+00 -1.669118916197e-02 4.471986200982e-07 0.000000000000e+00 -1.668194288054e-02 3.892397000234e-07 0.000000000000e+00 -1.666232055802e-02 3.308856132014e-07 0.000000000000e+00 -1.663940774488e-02 2.722136712555e-07 0.000000000000e+00 -1.664116572258e-02 2.125724483050e-07 0.000000000000e+00 -1.668895111262e-02 1.506874017303e-07 0.000000000000e+00 -1.675304621249e-02 8.833950093946e-07 0.000000000000e+00 -2.167523394473e-02 9.720856218587e-07 0.000000000000e+00 -2.018912588485e-02 1.047056985571e-06 0.000000000000e+00 -1.855078279644e-02 1.068356329891e-06 0.000000000000e+00 -1.860055062391e-02 8.329337717520e-07 0.000000000000e+00 -2.465292615909e-02 8.065767611011e-07 0.000000000000e+00 -2.736822768346e-02 7.856646079539e-07 0.000000000000e+00 -3.031444768403e-02 1.082072081237e-06 0.000000000000e+00 -1.882666517071e-02 7.623912875337e-07 0.000000000000e+00 -3.341976597595e-02 4.657260799999e-08 0.000000000000e+00 -3.530637873898e-02 4.907115082556e-08 0.000000000000e+00 -3.244281239903e-02 4.957002771503e-08 0.000000000000e+00 -2.960206918153e-02 4.999437464626e-08 0.000000000000e+00 -2.681536895954e-02 5.129237158556e-08 0.000000000000e+00 -2.403474166199e-02 5.301991511369e-08 0.000000000000e+00 -2.118370626967e-02 1.128996206341e-07 0.000000000000e+00 -1.949473595998e-02 7.762979820547e-07 0.000000000000e+00 -3.739834335766e-02 7.727543482756e-07 0.000000000000e+00 -3.521820048191e-02 1.087813207836e-06 0.000000000000e+00 -1.919540129558e-02 1.091797013433e-06 0.000000000000e+00 -1.937875258016e-02 1.093389479054e-06 0.000000000000e+00 -1.928402493890e-02 1.088030756040e-06 0.000000000000e+00 -1.917237233359e-02 1.075766599872e-06 0.000000000000e+00 -1.912237321839e-02 1.057863812239e-06 0.000000000000e+00 -1.909979621386e-02 1.035657129561e-06 0.000000000000e+00 -1.904964268536e-02 1.010093896153e-06 0.000000000000e+00 -1.897419207396e-02 9.810504471014e-07 0.000000000000e+00 -1.896254679537e-02 9.473299279418e-07 0.000000000000e+00 -1.909014720729e-02 9.096317638179e-07 0.000000000000e+00 -1.916761217580e-02 8.693819052323e-07 0.000000000000e+00 -1.913065164728e-02 8.267460420067e-07 0.000000000000e+00 -1.911226010991e-02 7.821541480864e-07 0.000000000000e+00 -1.908542779674e-02 7.360480463851e-07 0.000000000000e+00 -1.907293853082e-02 6.871615305578e-07 0.000000000000e+00 -1.915843756333e-02 6.351471547944e-07 0.000000000000e+00 -1.918564870992e-02 5.816352287020e-07 0.000000000000e+00 -1.910513712609e-02 5.271259655520e-07 0.000000000000e+00 -1.906621974529e-02 4.710045238021e-07 0.000000000000e+00 -1.906193303622e-02 4.135100771740e-07 0.000000000000e+00 -1.904073945508e-02 3.557958303542e-07 0.000000000000e+00 -1.897349700599e-02 2.987016765972e-07 0.000000000000e+00 -1.892019890213e-02 2.416849511497e-07 0.000000000000e+00 -1.896241854838e-02 1.823300444829e-07 0.000000000000e+00 -1.914788794275e-02 9.035680660343e-08 0.000000000000e+00 -3.710095309091e-02 9.854184126549e-08 0.000000000000e+00 -3.405915613656e-02 9.916778196684e-08 0.000000000000e+00 -3.104103410818e-02 9.881535701514e-08 0.000000000000e+00 -2.821178470840e-02 1.000962838004e-07 0.000000000000e+00 -2.548346708850e-02 1.045597483752e-07 0.000000000000e+00 -2.270411595391e-02 1.602709381895e-07 0.000000000000e+00 -2.172857480005e-02 2.153425972095e-07 0.000000000000e+00 -2.125679771040e-02 1.495688771238e-07 0.000000000000e+00 -2.430791922350e-02 1.967822026500e-07 0.000000000000e+00 -2.346458754680e-02 1.462229927512e-07 0.000000000000e+00 -2.684908226399e-02 1.895763004827e-07 0.000000000000e+00 -2.563832505831e-02 2.685411714384e-07 0.000000000000e+00 -2.110801284302e-02 2.425977296654e-07 0.000000000000e+00 -2.312380688269e-02 2.238542101894e-07 0.000000000000e+00 -2.474225655691e-02 1.475383117519e-07 0.000000000000e+00 -2.951373452010e-02 1.916994796909e-07 0.000000000000e+00 -2.797506158527e-02 2.298020383447e-07 0.000000000000e+00 -2.651795977048e-02 3.224758614801e-07 0.000000000000e+00 -2.117979375044e-02 2.904956000985e-07 0.000000000000e+00 -2.319598994225e-02 2.611542069267e-07 0.000000000000e+00 -2.498089602336e-02 3.788192470119e-07 0.000000000000e+00 -2.138219865417e-02 4.371411907652e-07 0.000000000000e+00 -2.146983910605e-02 4.942077460724e-07 0.000000000000e+00 -2.141130735200e-02 5.483122583356e-07 0.000000000000e+00 -2.141314925146e-02 6.006478203397e-07 0.000000000000e+00 -2.152124447021e-02 6.544916006784e-07 0.000000000000e+00 -2.184824167201e-02 7.060158752760e-07 0.000000000000e+00 -2.137227457751e-02 7.494032498981e-07 0.000000000000e+00 -2.138694910607e-02 7.926114218606e-07 0.000000000000e+00 -2.151888430089e-02 8.354884740526e-07 0.000000000000e+00 -2.150288630390e-02 8.749089110514e-07 0.000000000000e+00 -2.154081824145e-02 9.123769750348e-07 0.000000000000e+00 -2.177226936525e-02 9.493711235747e-07 0.000000000000e+00 -2.120246799174e-02 9.762874178641e-07 0.000000000000e+00 -2.112906710338e-02 9.987526101303e-07 0.000000000000e+00 -2.134111693982e-02 1.019299919044e-06 0.000000000000e+00 -2.150096914249e-02 1.036619419123e-06 0.000000000000e+00 -2.152797160096e-02 1.048615138617e-06 0.000000000000e+00 -2.152301106977e-02 1.052795604932e-06 0.000000000000e+00 -2.165104563127e-02 1.046756899190e-06 0.000000000000e+00 -2.197175565739e-02 1.508685589168e-07 0.000000000000e+00 -3.245620930919e-02 1.980723035403e-07 0.000000000000e+00 -3.059368964037e-02 2.391207944051e-07 0.000000000000e+00 -2.877911629445e-02 2.740437053006e-07 0.000000000000e+00 -2.702345335199e-02 3.064319818870e-07 0.000000000000e+00 -2.529920882809e-02 3.419756215220e-07 0.000000000000e+00 -2.349335756436e-02 1.030265407242e-06 0.000000000000e+00 -2.226093128231e-02 1.541881551225e-07 0.000000000000e+00 -3.604323644158e-02 2.207425908396e-07 0.000000000000e+00 -3.656397351411e-02 2.756882478780e-07 0.000000000000e+00 -3.700238353164e-02 3.238634531715e-07 0.000000000000e+00 -3.738492638040e-02 2.068346842531e-07 0.000000000000e+00 -3.352886926706e-02 2.519577419701e-07 0.000000000000e+00 -3.135782478891e-02 2.891760513967e-07 0.000000000000e+00 -2.925303490285e-02 3.188953010348e-07 0.000000000000e+00 -2.734712830046e-02 3.521000455569e-07 0.000000000000e+00 -2.577756911423e-02 3.691229064061e-07 0.000000000000e+00 -3.748515634038e-02 4.164744649029e-07 0.000000000000e+00 -3.734827746534e-02 4.654667995023e-07 0.000000000000e+00 -3.726329766205e-02 5.133990650678e-07 0.000000000000e+00 -3.724726385671e-02 5.592737238928e-07 0.000000000000e+00 -3.724562072104e-02 6.030718573109e-07 0.000000000000e+00 -3.723551403973e-02 6.448420102768e-07 0.000000000000e+00 -3.721575579106e-02 6.843621888507e-07 0.000000000000e+00 -3.720106188420e-02 7.211248005715e-07 0.000000000000e+00 -3.720646861284e-02 7.546905618283e-07 0.000000000000e+00 -3.722466462055e-02 7.848972495232e-07 0.000000000000e+00 -3.723305262308e-02 8.116345782491e-07 0.000000000000e+00 -3.721984401963e-02 8.345967045036e-07 0.000000000000e+00 -3.719107539497e-02 8.532296812726e-07 0.000000000000e+00 -3.716397539158e-02 8.668538963827e-07 0.000000000000e+00 -3.715671769425e-02 8.749294361436e-07 0.000000000000e+00 -3.717591480333e-02 8.772691962405e-07 0.000000000000e+00 -3.721028478318e-02 8.740061160622e-07 0.000000000000e+00 -3.723475019455e-02 8.653402159949e-07 0.000000000000e+00 -3.722316702310e-02 8.512316489271e-07 0.000000000000e+00 -3.716896791579e-02 8.312760355631e-07 0.000000000000e+00 -3.712437381995e-02 8.056395735482e-07 0.000000000000e+00 -3.717581607941e-02 2.642656899388e-07 0.000000000000e+00 -3.419489857104e-02 3.156978147653e-07 0.000000000000e+00 -3.490493125628e-02 3.534484174286e-07 0.000000000000e+00 -3.565498244211e-02 3.953210699228e-07 0.000000000000e+00 -3.514233342717e-02 3.134133771325e-07 0.000000000000e+00 -3.184894060028e-02 3.621329821045e-07 0.000000000000e+00 -3.339343834491e-02 3.370868262002e-07 0.000000000000e+00 -2.921164884952e-02 3.544983037459e-07 0.000000000000e+00 -2.755909535579e-02 3.714601799062e-07 0.000000000000e+00 -3.068016361929e-02 3.743975090166e-07 0.000000000000e+00 -2.863109055449e-02 4.470838903696e-07 0.000000000000e+00 -3.485210387419e-02 4.985019208132e-07 0.000000000000e+00 -3.484626405955e-02 5.466962741382e-07 0.000000000000e+00 -3.486622999881e-02 5.923701863038e-07 0.000000000000e+00 -3.486113356257e-02 6.360891908834e-07 0.000000000000e+00 -3.482306348654e-02 6.780488927023e-07 0.000000000000e+00 -3.476956685413e-02 7.175918635050e-07 0.000000000000e+00 -3.475343087256e-02 7.536404116543e-07 0.000000000000e+00 -3.479698546772e-02 7.859949996369e-07 0.000000000000e+00 -3.484085955977e-02 8.150293271947e-07 0.000000000000e+00 -3.483502564791e-02 8.407721723491e-07 0.000000000000e+00 -3.478241308454e-02 8.627289157681e-07 0.000000000000e+00 -3.471208964827e-02 8.799148374141e-07 0.000000000000e+00 -3.466878303956e-02 8.912885841978e-07 0.000000000000e+00 -3.468387365290e-02 8.963771792887e-07 0.000000000000e+00 -3.475229390714e-02 8.954956937594e-07 0.000000000000e+00 -3.483275689511e-02 8.893569295862e-07 0.000000000000e+00 -3.486678968427e-02 8.784419950680e-07 0.000000000000e+00 -3.480258967751e-02 8.623187795387e-07 0.000000000000e+00 -3.462378207208e-02 8.385378654474e-07 0.000000000000e+00 -3.454422065320e-02 8.074300720107e-07 0.000000000000e+00 -3.468049992935e-02 8.089405031124e-07 0.000000000000e+00 -3.181698445689e-02 8.397290397901e-07 0.000000000000e+00 -2.796774071496e-02 8.497859139084e-07 0.000000000000e+00 -2.565136039810e-02 8.914972340637e-07 0.000000000000e+00 -2.327687837353e-02 1.031569835787e-06 0.000000000000e+00 -2.126435112719e-02 1.023855330057e-06 0.000000000000e+00 -2.067850365498e-02 1.004681290503e-06 0.000000000000e+00 -2.043822430498e-02 9.432786475969e-07 0.000000000000e+00 -2.249888394484e-02 9.773541085267e-07 0.000000000000e+00 -2.209088423674e-02 8.903216691426e-07 0.000000000000e+00 -2.497451450232e-02 9.818191386807e-07 0.000000000000e+00 -2.281961051724e-02 9.369648478591e-07 0.000000000000e+00 -2.398853070478e-02 8.949009287275e-07 0.000000000000e+00 -2.643144106904e-02 8.629518749242e-07 0.000000000000e+00 -2.917342171842e-02 8.468864191322e-07 0.000000000000e+00 -3.191287496703e-02 8.797265032868e-07 0.000000000000e+00 -3.172128726839e-02 8.946005362722e-07 0.000000000000e+00 -3.235704851759e-02 9.059385219878e-07 0.000000000000e+00 -3.256291366308e-02 9.141795082265e-07 0.000000000000e+00 -3.254125222478e-02 9.183730937205e-07 0.000000000000e+00 -3.238993985107e-02 9.169180304517e-07 0.000000000000e+00 -3.221286468044e-02 9.082885132070e-07 0.000000000000e+00 -3.211614170067e-02 8.923711123866e-07 0.000000000000e+00 -3.214857240810e-02 8.706490159538e-07 0.000000000000e+00 -3.228373263804e-02 8.451210426987e-07 0.000000000000e+00 -3.242531365861e-02 8.168840566518e-07 0.000000000000e+00 -3.249196326667e-02 7.859836425508e-07 0.000000000000e+00 -3.245468296316e-02 7.516200559289e-07 0.000000000000e+00 -3.229508338323e-02 7.119531006242e-07 0.000000000000e+00 -3.224348163115e-02 6.687640214081e-07 0.000000000000e+00 -3.237371664249e-02 6.248252047248e-07 0.000000000000e+00 -3.248270099124e-02 5.796709378386e-07 0.000000000000e+00 -3.252562049404e-02 5.324261105482e-07 0.000000000000e+00 -3.249680099426e-02 4.816222471006e-07 0.000000000000e+00 -3.238843382470e-02 9.409336455865e-07 0.000000000000e+00 -2.507759918931e-02 9.076364074043e-07 0.000000000000e+00 -2.735243250025e-02 8.878553936628e-07 0.000000000000e+00 -2.950934459917e-02 9.840901750362e-07 0.000000000000e+00 -2.377152177238e-02 9.446658470358e-07 0.000000000000e+00 -2.604828092050e-02 9.189419082209e-07 0.000000000000e+00 -2.781682162228e-02 9.137128091873e-07 0.000000000000e+00 -2.903968388027e-02 9.157288227273e-07 0.000000000000e+00 -3.001831686096e-02 9.240018387639e-07 0.000000000000e+00 -3.040348783362e-02 9.329725973522e-07 0.000000000000e+00 -3.041165899552e-02 9.400983345529e-07 0.000000000000e+00 -3.019359823770e-02 9.435676820106e-07 0.000000000000e+00 -2.980984004509e-02 9.392282762911e-07 0.000000000000e+00 -2.951235851732e-02 9.249975924850e-07 0.000000000000e+00 -2.944109094990e-02 9.024366206092e-07 0.000000000000e+00 -2.963185284647e-02 8.753503204591e-07 0.000000000000e+00 -2.996774157026e-02 8.470516025503e-07 0.000000000000e+00 -3.016689953447e-02 8.172365999528e-07 0.000000000000e+00 -3.021414230016e-02 7.856176870320e-07 0.000000000000e+00 -3.007793697817e-02 7.496344155169e-07 0.000000000000e+00 -2.943247130257e-02 7.007736047593e-07 0.000000000000e+00 -2.982606833526e-02 6.558160546524e-07 0.000000000000e+00 -3.009326445243e-02 6.112808451314e-07 0.000000000000e+00 -3.022653493118e-02 5.655576382412e-07 0.000000000000e+00 -3.024062522490e-02 5.178777705959e-07 0.000000000000e+00 -3.014595220317e-02 9.422718003726e-07 0.000000000000e+00 -2.709768721385e-02 9.393974226327e-07 0.000000000000e+00 -2.804130099929e-02 9.425977484395e-07 0.000000000000e+00 -2.853554053861e-02 9.509008062771e-07 0.000000000000e+00 -2.854404854079e-02 9.605121302789e-07 0.000000000000e+00 -2.824538903303e-02 9.759507149348e-07 0.000000000000e+00 -2.512766904336e-02 9.621162492819e-07 0.000000000000e+00 -2.648479738032e-02 9.601049125905e-07 0.000000000000e+00 -2.706063992562e-02 9.920651633692e-07 0.000000000000e+00 -2.509397288869e-02 1.014161694548e-06 0.000000000000e+00 -2.417741278054e-02 9.648987375060e-07 0.000000000000e+00 -2.715243153593e-02 9.790924170293e-07 0.000000000000e+00 -2.653808134725e-02 1.019366979096e-06 0.000000000000e+00 -2.381505139580e-02 9.895573493323e-07 0.000000000000e+00 -2.603168996256e-02 1.012716588300e-06 0.000000000000e+00 -2.388872063629e-02 9.934282024008e-07 0.000000000000e+00 -2.565504725743e-02 9.677210556732e-07 0.000000000000e+00 -2.778340536483e-02 9.748425444509e-07 0.000000000000e+00 -2.677338858892e-02 9.987914140618e-07 0.000000000000e+00 -2.405611163328e-02 9.612107396098e-07 0.000000000000e+00 -2.670510029458e-02 9.813858599060e-07 0.000000000000e+00 -2.392764389635e-02 9.400527729572e-07 0.000000000000e+00 -2.649552837154e-02 9.056501088160e-07 0.000000000000e+00 -2.740972569474e-02 9.638415720200e-07 0.000000000000e+00 -2.343541659249e-02 9.319440192826e-07 0.000000000000e+00 -2.486656122112e-02 9.497869143981e-07 0.000000000000e+00 -2.281148726785e-02 8.761129031246e-07 0.000000000000e+00 -2.785075981409e-02 9.025740119247e-07 0.000000000000e+00 -2.559608935368e-02 9.247854669204e-07 0.000000000000e+00 -2.339655754957e-02 8.468333356337e-07 0.000000000000e+00 -2.802538154950e-02 8.747008248430e-07 0.000000000000e+00 -2.590040292294e-02 8.984488464578e-07 0.000000000000e+00 -2.410611447785e-02 8.752367639078e-07 0.000000000000e+00 -2.384625955463e-02 8.451583078545e-07 0.000000000000e+00 -2.594371798426e-02 8.164283643639e-07 0.000000000000e+00 -2.805068523040e-02 8.416490409081e-07 0.000000000000e+00 -2.379535518853e-02 8.118812168781e-07 0.000000000000e+00 -2.602461406424e-02 7.879553690784e-07 0.000000000000e+00 -2.800582305589e-02 8.024496534834e-07 0.000000000000e+00 -2.390003158641e-02 7.733857249032e-07 0.000000000000e+00 -2.643509450643e-02 7.290923289674e-07 0.000000000000e+00 -2.712368160080e-02 6.838855852305e-07 0.000000000000e+00 -2.767554977431e-02 6.404334667559e-07 0.000000000000e+00 -2.796775543081e-02 5.965762537952e-07 0.000000000000e+00 -2.805308883036e-02 5.508720669033e-07 0.000000000000e+00 -2.801232662406e-02 7.544503713648e-07 0.000000000000e+00 -2.410982875411e-02 7.070409580074e-07 0.000000000000e+00 -2.524325216604e-02 7.208076419500e-07 0.000000000000e+00 -2.314510540830e-02 6.655808170610e-07 0.000000000000e+00 -2.578120909466e-02 6.844049421836e-07 0.000000000000e+00 -2.360233932802e-02 6.251203194467e-07 0.000000000000e+00 -2.596561277619e-02 6.490773385047e-07 0.000000000000e+00 -2.421327646487e-02 6.135464246893e-07 0.000000000000e+00 -2.386004279992e-02 5.818772593622e-07 0.000000000000e+00 -2.590495782336e-02 5.665185562757e-07 0.000000000000e+00 -2.370043956080e-02 5.350151495624e-07 0.000000000000e+00 -2.583763245328e-02 5.042644491280e-07 0.000000000000e+00 -2.790295457190e-02 5.160879367700e-07 0.000000000000e+00 -2.366606963261e-02 4.868747548719e-07 0.000000000000e+00 -2.585229177387e-02 4.624393517409e-07 0.000000000000e+00 -2.378807835264e-02 4.003665351756e-07 0.000000000000e+00 -2.413660780798e-02 3.898006630927e-07 0.000000000000e+00 -2.685976408051e-02 4.372962427962e-07 0.000000000000e+00 -2.620394105655e-02 4.683387454479e-07 0.000000000000e+00 -2.986273103041e-02 4.633732215126e-07 0.000000000000e+00 -2.773589340426e-02 4.212137417350e-07 0.000000000000e+00 -3.216755847756e-02 4.184042068547e-07 0.000000000000e+00 -2.887583783536e-02 1.423795152200e-06 0.000000000000e+00 0.000000000000e+00 1.507769883474e-06 0.000000000000e+00 0.000000000000e+00 1.537803339750e-06 0.000000000000e+00 0.000000000000e+00 1.533903753913e-06 0.000000000000e+00 0.000000000000e+00 1.511325461760e-06 0.000000000000e+00 0.000000000000e+00 1.479224294948e-06 0.000000000000e+00 0.000000000000e+00 1.442654325790e-06 0.000000000000e+00 0.000000000000e+00 1.404169356060e-06 0.000000000000e+00 0.000000000000e+00 1.364885471064e-06 0.000000000000e+00 0.000000000000e+00 1.325178130436e-06 0.000000000000e+00 0.000000000000e+00 1.285073010720e-06 0.000000000000e+00 0.000000000000e+00 1.244438129554e-06 0.000000000000e+00 0.000000000000e+00 1.203083766166e-06 0.000000000000e+00 0.000000000000e+00 1.160815934035e-06 0.000000000000e+00 0.000000000000e+00 1.117462400294e-06 0.000000000000e+00 0.000000000000e+00 1.072883747022e-06 0.000000000000e+00 0.000000000000e+00 1.026977183241e-06 0.000000000000e+00 0.000000000000e+00 9.796757045358e-07 0.000000000000e+00 0.000000000000e+00 9.309441229691e-07 0.000000000000e+00 0.000000000000e+00 8.807758051897e-07 0.000000000000e+00 0.000000000000e+00 8.291891659007e-07 0.000000000000e+00 0.000000000000e+00 7.762231615021e-07 0.000000000000e+00 0.000000000000e+00 7.219337726718e-07 0.000000000000e+00 0.000000000000e+00 6.663907534135e-07 0.000000000000e+00 0.000000000000e+00 6.096744770379e-07 0.000000000000e+00 0.000000000000e+00 5.518746250795e-07 0.000000000000e+00 0.000000000000e+00 4.930877895519e-07 0.000000000000e+00 0.000000000000e+00 4.334148048535e-07 0.000000000000e+00 0.000000000000e+00 3.729606938761e-07 0.000000000000e+00 0.000000000000e+00 3.118334559928e-07 0.000000000000e+00 0.000000000000e+00 2.501430608375e-07 0.000000000000e+00 0.000000000000e+00 1.880029222969e-07 0.000000000000e+00 0.000000000000e+00 1.255258328559e-07 0.000000000000e+00 0.000000000000e+00 6.282164963511e-08 0.000000000000e+00 0.000000000000e+00 0.000000000000e+00 0.000000000000e+00 0.000000000000e+00 0.000000000000e+00 0.000000000000e+00 -2.862213674139e-03 0.000000000000e+00 0.000000000000e+00 -5.724427787091e-03 0.000000000000e+00 0.000000000000e+00 -8.586642765693e-03 0.000000000000e+00 0.000000000000e+00 -1.144885902470e-02 4.161206437243e-08 0.000000000000e+00 -1.911486425320e-03 3.960172287047e-08 0.000000000000e+00 -1.244691767385e-02 1.231464671016e-06 0.000000000000e+00 -1.207498852881e-02 9.338801115348e-08 0.000000000000e+00 -2.404635701366e-03 8.829641107586e-08 0.000000000000e+00 -1.201089224986e-02 1.232004485425e-06 0.000000000000e+00 -1.223223079927e-02 4.837993507350e-08 0.000000000000e+00 -1.015768455966e-02 5.176165636891e-08 0.000000000000e+00 -4.297118074797e-03 1.369948223915e-06 0.000000000000e+00 -9.659753697520e-03 1.326327283320e-06 0.000000000000e+00 -1.050068465208e-02 1.252053842470e-06 0.000000000000e+00 -1.209937810444e-02 1.343705448229e-06 0.000000000000e+00 -1.011212286812e-02 1.269126900569e-06 0.000000000000e+00 -1.193174833758e-02 1.274193842675e-06 0.000000000000e+00 -1.188958817663e-02 1.272770805235e-06 0.000000000000e+00 -1.184885703288e-02 1.265443775309e-06 0.000000000000e+00 -1.179591064115e-02 1.250234306147e-06 0.000000000000e+00 -1.184467866108e-02 1.231285974188e-06 0.000000000000e+00 -1.188018538477e-02 1.208979767649e-06 0.000000000000e+00 -1.189954372365e-02 1.183447746090e-06 0.000000000000e+00 -1.190918485774e-02 1.154851788703e-06 0.000000000000e+00 -1.191382767742e-02 1.123362615747e-06 0.000000000000e+00 -1.191615471597e-02 1.089138337763e-06 0.000000000000e+00 -1.191747582120e-02 1.052322517429e-06 0.000000000000e+00 -1.191833391524e-02 1.013049200878e-06 0.000000000000e+00 -1.191893750162e-02 9.714476315468e-07 0.000000000000e+00 -1.191939057402e-02 9.276443432367e-07 0.000000000000e+00 -1.191976333613e-02 8.817646535166e-07 0.000000000000e+00 -1.192009622950e-02 8.339341241566e-07 0.000000000000e+00 -1.192040059498e-02 7.842795554301e-07 0.000000000000e+00 -1.192066356482e-02 7.329297189705e-07 0.000000000000e+00 -1.192084135600e-02 6.800153958055e-07 0.000000000000e+00 -1.192082681080e-02 6.256699657347e-07 0.000000000000e+00 -1.192037840236e-02 5.700310655273e-07 0.000000000000e+00 -1.191899273837e-02 5.132438334207e-07 0.000000000000e+00 -1.191567868746e-02 4.554673417798e-07 0.000000000000e+00 -1.190851773817e-02 3.968694821459e-07 0.000000000000e+00 -1.189324322652e-02 3.375777720051e-07 0.000000000000e+00 -1.185932284309e-02 2.774082549485e-07 0.000000000000e+00 -1.178081502403e-02 2.149442763007e-07 0.000000000000e+00 -1.161955493978e-02 1.499957101362e-07 0.000000000000e+00 -1.165254978686e-02 1.441499956779e-06 0.000000000000e+00 -6.925144244782e-03 1.413986885657e-06 0.000000000000e+00 -8.436400527132e-03 1.464279711669e-06 0.000000000000e+00 -3.430438809475e-03 1.521453741022e-06 0.000000000000e+00 -2.783700789276e-03 1.481933624245e-06 0.000000000000e+00 -5.726316316053e-03 1.527747407190e-06 0.000000000000e+00 -2.470716876676e-03 1.512525188193e-06 0.000000000000e+00 -2.291011884507e-03 1.486145212800e-06 0.000000000000e+00 -2.207059315593e-03 1.453541162595e-06 0.000000000000e+00 -2.210534772646e-03 1.417420024582e-06 0.000000000000e+00 -2.260383424410e-03 1.379492997209e-06 0.000000000000e+00 -2.309652629551e-03 1.340719751908e-06 0.000000000000e+00 -2.341607456007e-03 1.301447922667e-06 0.000000000000e+00 -2.359279611889e-03 1.261659304840e-06 0.000000000000e+00 -2.368312237069e-03 1.221188538282e-06 0.000000000000e+00 -2.372809868639e-03 1.179835463460e-06 0.000000000000e+00 -2.375139513461e-03 1.137414469740e-06 0.000000000000e+00 -2.376475117515e-03 1.093773263806e-06 0.000000000000e+00 -2.377329650408e-03 1.048798045877e-06 0.000000000000e+00 -2.377926405781e-03 1.002412475195e-06 0.000000000000e+00 -2.378382662403e-03 9.545738771712e-07 0.000000000000e+00 -2.378768053719e-03 9.052687693817e-07 0.000000000000e+00 -2.379117959115e-03 8.545092726231e-07 0.000000000000e+00 -2.379442733936e-03 8.023295466245e-07 0.000000000000e+00 -2.379734223287e-03 7.487819991736e-07 0.000000000000e+00 -2.379957596395e-03 6.939347590277e-07 0.000000000000e+00 -2.380016919409e-03 6.378695358133e-07 0.000000000000e+00 -2.379689698732e-03 5.806817053674e-07 0.000000000000e+00 -2.378551784731e-03 5.224850185717e-07 0.000000000000e+00 -2.375982327612e-03 4.634216514042e-07 0.000000000000e+00 -2.371471104547e-03 4.036807816312e-07 0.000000000000e+00 -2.365776699323e-03 3.435111207485e-07 0.000000000000e+00 -2.364449644171e-03 2.831104863405e-07 0.000000000000e+00 -2.387410074932e-03 2.218668679267e-07 0.000000000000e+00 -2.482685053870e-03 1.576178497241e-07 0.000000000000e+00 -2.607321057123e-03 1.205413921652e-07 0.000000000000e+00 -5.624557431683e-03 1.074702904340e-07 0.000000000000e+00 -9.196154352170e-03 5.475333163019e-08 0.000000000000e+00 -7.264079304849e-03 1.357338633793e-06 0.000000000000e+00 -9.715138013380e-03 1.433560318188e-06 0.000000000000e+00 -7.707278675851e-03 1.495411859764e-06 0.000000000000e+00 -5.088133027771e-03 1.489711533401e-06 0.000000000000e+00 -4.674015797066e-03 1.472770704084e-06 0.000000000000e+00 -4.402551287465e-03 1.438378985251e-06 0.000000000000e+00 -7.179620108889e-03 1.436702269048e-06 0.000000000000e+00 -6.626266360507e-03 1.364309981515e-06 0.000000000000e+00 -9.278538101392e-03 1.447457649258e-06 0.000000000000e+00 -4.340710275860e-03 1.425786856717e-06 0.000000000000e+00 -6.284078286067e-03 1.392962796906e-06 0.000000000000e+00 -7.950084447356e-03 1.340551619222e-06 0.000000000000e+00 -9.664970065833e-03 1.415877116002e-06 0.000000000000e+00 -4.452791407816e-03 1.400240004143e-06 0.000000000000e+00 -6.488555647953e-03 1.381969458772e-06 0.000000000000e+00 -7.902016539181e-03 1.338407204169e-06 0.000000000000e+00 -9.123712110944e-03 1.381003026945e-06 0.000000000000e+00 -4.584841633177e-03 1.344823980736e-06 0.000000000000e+00 -4.666967091143e-03 1.307969686684e-06 0.000000000000e+00 -4.711894923239e-03 1.270435925239e-06 0.000000000000e+00 -4.734990180752e-03 1.232052565111e-06 0.000000000000e+00 -4.746416368840e-03 1.192626680627e-06 0.000000000000e+00 -4.752067057787e-03 1.151986198966e-06 0.000000000000e+00 -4.755066674471e-03 1.109992596700e-06 0.000000000000e+00 -4.756864898993e-03 1.066544902504e-06 0.000000000000e+00 -4.758064832583e-03 1.021577987595e-06 0.000000000000e+00 -4.758932319705e-03 9.750587062921e-07 0.000000000000e+00 -4.759617800575e-03 9.269814304229e-07 0.000000000000e+00 -4.760211825143e-03 8.773639589444e-07 0.000000000000e+00 -4.760754660066e-03 8.262446535241e-07 0.000000000000e+00 -4.761246326349e-03 7.736795236505e-07 0.000000000000e+00 -4.761646195121e-03 7.197398268543e-07 0.000000000000e+00 -4.761839948230e-03 6.645108106191e-07 0.000000000000e+00 -4.761559597919e-03 6.080922734728e-07 0.000000000000e+00 -4.760261077735e-03 5.506032604903e-07 0.000000000000e+00 -4.757013446040e-03 4.921954252302e-07 0.000000000000e+00 -4.750551033639e-03 4.330789076694e-07 0.000000000000e+00 -4.739775576585e-03 3.735780035456e-07 0.000000000000e+00 -4.725808832784e-03 3.142340406512e-07 0.000000000000e+00 -4.719565057090e-03 2.557901404482e-07 0.000000000000e+00 -4.774064873223e-03 1.955042768875e-07 0.000000000000e+00 -5.144893233757e-03 1.821594026212e-07 0.000000000000e+00 -8.477297223844e-03 2.340110456449e-07 0.000000000000e+00 -6.918546112290e-03 2.509705795082e-07 0.000000000000e+00 -9.198929885355e-03 2.850359422230e-07 0.000000000000e+00 -7.011493595349e-03 3.109841369252e-07 0.000000000000e+00 -9.397424669320e-03 3.430018592806e-07 0.000000000000e+00 -7.070732491565e-03 3.703210300357e-07 0.000000000000e+00 -9.470896195039e-03 4.021182060700e-07 0.000000000000e+00 -7.105476781047e-03 4.293729226781e-07 0.000000000000e+00 -9.503420360154e-03 4.878824039145e-07 0.000000000000e+00 -9.519048810475e-03 4.611558996888e-07 0.000000000000e+00 -7.125576914207e-03 5.196322950403e-07 0.000000000000e+00 -7.136620824129e-03 5.456124084755e-07 0.000000000000e+00 -9.526908649834e-03 5.772811981097e-07 0.000000000000e+00 -7.142365758512e-03 6.023521094482e-07 0.000000000000e+00 -9.530558349698e-03 6.339108081135e-07 0.000000000000e+00 -7.145001050501e-03 6.579430273195e-07 0.000000000000e+00 -9.532051362730e-03 6.893760250806e-07 0.000000000000e+00 -7.145955997760e-03 7.122474231537e-07 0.000000000000e+00 -9.532467823979e-03 7.435559151590e-07 0.000000000000e+00 -7.146069644624e-03 7.651410230103e-07 0.000000000000e+00 -9.532370596864e-03 7.963450158360e-07 0.000000000000e+00 -7.145787722511e-03 8.165091694885e-07 0.000000000000e+00 -9.532036480335e-03 8.476503105021e-07 0.000000000000e+00 -7.145325073271e-03 8.662445504864e-07 0.000000000000e+00 -9.531592475025e-03 8.973902411544e-07 0.000000000000e+00 -7.144775352498e-03 9.142472920978e-07 0.000000000000e+00 -9.531089731115e-03 9.454961603765e-07 0.000000000000e+00 -7.144166928298e-03 9.604260661015e-07 0.000000000000e+00 -9.530530967787e-03 9.919141757031e-07 0.000000000000e+00 -7.143476107544e-03 1.004698118640e-06 0.000000000000e+00 -9.529870230322e-03 1.036606286592e-06 0.000000000000e+00 -7.142623553579e-03 1.046989234592e-06 0.000000000000e+00 -9.529014759300e-03 1.079553015954e-06 0.000000000000e+00 -7.141480767295e-03 1.087235203504e-06 0.000000000000e+00 -9.527834784529e-03 1.120756869946e-06 0.000000000000e+00 -7.139852225290e-03 1.125383344942e-06 0.000000000000e+00 -9.526100183091e-03 1.160246323305e-06 0.000000000000e+00 -7.137300773484e-03 1.161394133544e-06 0.000000000000e+00 -9.523200192586e-03 1.198079700994e-06 0.000000000000e+00 -7.132673840011e-03 1.195242496357e-06 0.000000000000e+00 -9.517561904784e-03 1.234347958221e-06 0.000000000000e+00 -7.123286589117e-03 1.269181755823e-06 0.000000000000e+00 -7.103736605218e-03 1.226923930685e-06 0.000000000000e+00 -9.505778616880e-03 1.256479918179e-06 0.000000000000e+00 -9.481374241185e-03 1.302786121741e-06 0.000000000000e+00 -7.064250185880e-03 1.284104988510e-06 0.000000000000e+00 -9.432487716027e-03 1.335503169664e-06 0.000000000000e+00 -6.985929595560e-03 1.310463863507e-06 0.000000000000e+00 -9.335497065677e-03 1.367934955275e-06 0.000000000000e+00 -6.828684944076e-03 4.098244860264e-07 0.000000000000e+00 -8.724734536027e-02 4.554430309523e-07 0.000000000000e+00 -8.594935575318e-02 4.216471282357e-07 0.000000000000e+00 -8.656272477291e-02 4.156337516143e-07 0.000000000000e+00 -8.662379415287e-02 3.880692007382e-07 0.000000000000e+00 -8.792212161820e-02 4.179453425850e-07 0.000000000000e+00 -8.656237004293e-02 3.686811602650e-07 0.000000000000e+00 -8.922009505903e-02 3.712608696665e-07 0.000000000000e+00 -8.915868796160e-02 3.667919857463e-07 0.000000000000e+00 -8.953377432260e-02 3.544078053504e-07 0.000000000000e+00 -9.077033875249e-02 3.432318434752e-07 0.000000000000e+00 -9.499170852898e-02 3.382592370861e-07 0.000000000000e+00 -9.562844912494e-02 3.440506964113e-07 0.000000000000e+00 -9.628528425492e-02 3.498623714375e-07 0.000000000000e+00 -1.025893693689e-01 3.459862407135e-07 0.000000000000e+00 -1.030561917696e-01 3.523741645612e-07 0.000000000000e+00 -1.039031210363e-01 3.639739422399e-07 0.000000000000e+00 -1.078383991146e-01 3.626152719033e-07 0.000000000000e+00 -1.083367232197e-01 3.691834785238e-07 0.000000000000e+00 -1.091264572081e-01 3.878663081500e-07 0.000000000000e+00 -1.130259639954e-01 3.867327351020e-07 0.000000000000e+00 -1.130847492641e-01 3.937198188545e-07 0.000000000000e+00 -1.138787617472e-01 3.987844911900e-07 0.000000000000e+00 -1.145272075996e-01 3.977523699662e-07 0.000000000000e+00 -1.145859930631e-01 4.017547979143e-07 0.000000000000e+00 -1.145535404363e-01 4.058662026484e-07 0.000000000000e+00 -1.152607720716e-01 4.013680928277e-07 0.000000000000e+00 -1.131690226522e-01 4.068714363556e-07 0.000000000000e+00 -1.143444627416e-01 4.059993160290e-07 0.000000000000e+00 -1.136934053670e-01 4.051297512766e-07 0.000000000000e+00 -1.145535918168e-01 4.102123356676e-07 0.000000000000e+00 -1.150779755504e-01 3.984054638856e-07 0.000000000000e+00 -1.138200282514e-01 3.916280811270e-07 0.000000000000e+00 -1.125220662005e-01 3.877248895043e-07 0.000000000000e+00 -1.125220142712e-01 3.810182331330e-07 0.000000000000e+00 -1.117280024901e-01 3.747300242722e-07 0.000000000000e+00 -1.104244173375e-01 3.743321579401e-07 0.000000000000e+00 -1.109283663075e-01 3.756380181046e-07 0.000000000000e+00 -1.099260924861e-01 3.850779681883e-07 0.000000000000e+00 -1.110992078682e-01 3.798892594906e-07 0.000000000000e+00 -1.098012473888e-01 3.949602458426e-07 0.000000000000e+00 -1.123972201216e-01 3.952667654375e-07 0.000000000000e+00 -1.117461637732e-01 3.910590747238e-07 0.000000000000e+00 -1.103833301160e-01 3.968229553921e-07 0.000000000000e+00 -1.111551311555e-01 3.836065175810e-07 0.000000000000e+00 -1.074948817535e-01 3.871691652640e-07 0.000000000000e+00 -1.089604730232e-01 3.903222628436e-07 0.000000000000e+00 -1.083267058934e-01 3.840395482976e-07 0.000000000000e+00 -1.095515044134e-01 3.750498276411e-07 0.000000000000e+00 -1.083783906820e-01 3.713839375762e-07 0.000000000000e+00 -1.070804315704e-01 3.662413540850e-07 0.000000000000e+00 -1.073301733360e-01 3.596295986536e-07 0.000000000000e+00 -1.065404401222e-01 3.555760895439e-07 0.000000000000e+00 -1.052010792320e-01 3.529878893085e-07 0.000000000000e+00 -1.057093042874e-01 3.593618991080e-07 0.000000000000e+00 -1.047342562778e-01 3.681640358304e-07 0.000000000000e+00 -1.056575762008e-01 3.659201311111e-07 0.000000000000e+00 -1.043596181204e-01 3.770370549705e-07 0.000000000000e+00 -1.067057920470e-01 3.817902839529e-07 0.000000000000e+00 -1.060720262525e-01 3.804951555963e-07 0.000000000000e+00 -1.047616143710e-01 3.870460263694e-07 0.000000000000e+00 -1.055507028282e-01 3.817704972883e-07 0.000000000000e+00 -1.021368131632e-01 3.805971985628e-07 0.000000000000e+00 -1.033387599473e-01 3.884096802595e-07 0.000000000000e+00 -1.030383441496e-01 3.737940842347e-07 0.000000000000e+00 -1.038600822923e-01 3.641891998659e-07 0.000000000000e+00 -1.029367636139e-01 3.632275457246e-07 0.000000000000e+00 -1.016388060070e-01 3.547707555530e-07 0.000000000000e+00 -1.021383404451e-01 3.477196080997e-07 0.000000000000e+00 -1.012914113989e-01 3.464942845993e-07 0.000000000000e+00 -1.000660735378e-01 3.418325609517e-07 0.000000000000e+00 -1.005171022285e-01 3.521903653156e-07 0.000000000000e+00 -9.954242444137e-02 3.453066538427e-07 0.000000000000e+00 -9.876811494420e-02 3.442941223449e-07 0.000000000000e+00 -9.758324474336e-02 3.394371115986e-07 0.000000000000e+00 -9.810689422569e-02 3.513301644074e-07 0.000000000000e+00 -9.694650599990e-02 3.635166733295e-07 0.000000000000e+00 -9.762225794727e-02 3.644481078776e-07 0.000000000000e+00 -9.632429798614e-02 3.774456900957e-07 0.000000000000e+00 -9.829578483015e-02 3.629434377916e-07 0.000000000000e+00 -9.891799351044e-02 3.628089715587e-07 0.000000000000e+00 -1.002159515735e-01 3.740926538150e-07 0.000000000000e+00 -1.010143739121e-01 3.838057747647e-07 0.000000000000e+00 -1.007139591166e-01 3.886337316433e-07 0.000000000000e+00 -9.959150372450e-02 3.958591435932e-07 0.000000000000e+00 -1.007139417541e-01 3.925251145137e-07 0.000000000000e+00 -9.829576905972e-02 4.123903166499e-07 0.000000000000e+00 -9.803315076533e-02 4.017342473743e-07 0.000000000000e+00 -9.673743358523e-02 4.113630699890e-07 0.000000000000e+00 -9.385336529880e-02 4.084685834526e-07 0.000000000000e+00 -9.544169665979e-02 4.338449635134e-07 0.000000000000e+00 -9.488648537304e-02 3.831374487244e-07 0.000000000000e+00 -9.570431226935e-02 3.656645965349e-07 0.000000000000e+00 -9.502855942499e-02 3.671078991865e-07 0.000000000000e+00 -9.373059488603e-02 3.521082377607e-07 0.000000000000e+00 -9.435058139509e-02 3.446375315830e-07 0.000000000000e+00 -9.369374426101e-02 3.475671004720e-07 0.000000000000e+00 -9.206830865567e-02 3.430777099724e-07 0.000000000000e+00 -9.270944184505e-02 3.560343564030e-07 0.000000000000e+00 -9.175464444992e-02 3.688718364515e-07 0.000000000000e+00 -9.243484949497e-02 3.713942750265e-07 0.000000000000e+00 -9.113687491194e-02 3.905360234071e-07 0.000000000000e+00 -9.311283093809e-02 4.195920389146e-07 0.000000000000e+00 -9.255762178390e-02 4.247443141739e-07 0.000000000000e+00 -9.126832974672e-02 4.538372937755e-07 0.000000000000e+00 -9.200886516840e-02 4.468224543626e-07 0.000000000000e+00 -8.873776480768e-02 4.346302271150e-07 0.000000000000e+00 -8.997256932894e-02 4.868668333860e-07 0.000000000000e+00 -8.948477723698e-02 3.990516279351e-07 0.000000000000e+00 -9.052132782270e-02 3.761123214289e-07 0.000000000000e+00 -8.984111529398e-02 3.865734150827e-07 0.000000000000e+00 -8.854312237301e-02 4.183017948488e-07 0.000000000000e+00 -8.792977184354e-02 4.785029037091e-07 0.000000000000e+00 -8.744195992512e-02 5.256407887925e-07 0.000000000000e+00 -8.617779136755e-02 5.658987544870e-07 0.000000000000e+00 -8.698579968125e-02 5.238783252511e-07 0.000000000000e+00 -8.094915491619e-02 5.175867721064e-07 0.000000000000e+00 -8.227714124069e-02 5.259153856236e-07 0.000000000000e+00 -8.177505050566e-02 5.242032998726e-07 0.000000000000e+00 -7.584262062349e-02 5.284240481702e-07 0.000000000000e+00 -7.705727104999e-02 4.477635462275e-07 0.000000000000e+00 -7.663126280585e-02 4.858425435233e-07 0.000000000000e+00 -7.108608584731e-02 5.050349540947e-07 0.000000000000e+00 -7.213882251508e-02 4.443343884684e-07 0.000000000000e+00 -7.213881554463e-02 4.694761357475e-07 0.000000000000e+00 -6.472796628517e-02 4.574172902821e-07 0.000000000000e+00 -6.648461554778e-02 4.258786434995e-07 0.000000000000e+00 -6.588250168750e-02 4.981765976116e-07 0.000000000000e+00 -5.925967654921e-02 4.920011802676e-07 0.000000000000e+00 -6.047460612208e-02 4.699046684448e-07 0.000000000000e+00 -6.016023396828e-02 5.476354990873e-07 0.000000000000e+00 -5.078850426534e-02 5.362511448927e-07 0.000000000000e+00 -5.238058439204e-02 5.155772799951e-07 0.000000000000e+00 -5.207220260281e-02 5.949281422455e-07 0.000000000000e+00 -4.500181170970e-02 5.825132816605e-07 0.000000000000e+00 -4.644533606901e-02 5.704801085793e-07 0.000000000000e+00 -4.594940023443e-02 6.442791999175e-07 0.000000000000e+00 -3.933768828003e-02 6.311254309369e-07 0.000000000000e+00 -4.078137990259e-02 6.247731939959e-07 0.000000000000e+00 -4.022045948778e-02 6.976665864035e-07 0.000000000000e+00 -3.380297074465e-02 6.844937572098e-07 0.000000000000e+00 -3.511668124498e-02 6.844861236473e-07 0.000000000000e+00 -3.462018497443e-02 7.488397406144e-07 0.000000000000e+00 -2.870024020244e-02 7.369761003031e-07 0.000000000000e+00 -2.981183244028e-02 7.388667016779e-07 0.000000000000e+00 -2.981175842028e-02 7.625986315914e-07 0.000000000000e+00 -2.739561637036e-02 7.571411382930e-07 0.000000000000e+00 -2.739568724031e-02 7.759219855988e-07 0.000000000000e+00 -2.712234187551e-02 7.811866933277e-07 0.000000000000e+00 -2.581778948882e-02 8.259702154913e-07 0.000000000000e+00 -2.039759658583e-02 8.187671049560e-07 0.000000000000e+00 -2.164281190145e-02 8.549037923340e-07 0.000000000000e+00 -2.116791041351e-02 8.588416176679e-07 0.000000000000e+00 -1.523220206067e-02 8.390645943862e-07 0.000000000000e+00 -1.654759857051e-02 9.497559437821e-07 0.000000000000e+00 -1.612625375843e-02 1.199204903072e-06 0.000000000000e+00 -9.935689327654e-03 1.284714026493e-06 0.000000000000e+00 -1.127341938646e-02 1.031504176296e-06 0.000000000000e+00 -1.077364792389e-02 1.025518065392e-06 0.000000000000e+00 -4.812925638931e-03 1.047858984030e-06 0.000000000000e+00 -6.030435525997e-03 9.265317123509e-07 0.000000000000e+00 -5.625462230378e-03 1.160707256335e-06 0.000000000000e+00 0.000000000000e+00 1.180580962349e-06 0.000000000000e+00 -1.304477509739e-03 1.057126456757e-06 0.000000000000e+00 -1.304480125227e-03 9.075876361458e-07 0.000000000000e+00 0.000000000000e+00 9.527234588862e-07 0.000000000000e+00 -1.079460984936e-03 8.231381454702e-07 0.000000000000e+00 -1.079459556670e-03 9.735754667573e-07 0.000000000000e+00 -2.383940241760e-03 1.000465153127e-06 0.000000000000e+00 -3.508455410417e-03 8.895141543530e-07 0.000000000000e+00 -3.283435476473e-03 1.106123834030e-06 0.000000000000e+00 -3.913430466341e-03 1.206051664597e-06 0.000000000000e+00 -2.735455815910e-03 1.233307088532e-06 0.000000000000e+00 -4.039923123937e-03 1.289866715814e-06 0.000000000000e+00 -1.430977895800e-03 1.356470010396e-06 0.000000000000e+00 0.000000000000e+00 1.371851134176e-06 0.000000000000e+00 -1.430974296367e-03 1.446991250332e-06 0.000000000000e+00 -1.715221240430e-03 1.404235162329e-06 0.000000000000e+00 -3.146192035052e-03 1.419217317685e-06 0.000000000000e+00 -6.324497943525e-03 1.418864482807e-06 0.000000000000e+00 -4.577153953116e-03 1.457627799532e-06 0.000000000000e+00 -5.177796045233e-03 1.337909260315e-06 0.000000000000e+00 -4.292916154951e-03 1.268120035362e-06 0.000000000000e+00 -5.470882211735e-03 1.303541357191e-06 0.000000000000e+00 -6.775322105535e-03 1.175213190631e-06 0.000000000000e+00 -6.522345410995e-03 1.085101648210e-06 0.000000000000e+00 -7.334881388329e-03 1.128202364274e-06 0.000000000000e+00 -8.631317983531e-03 9.590133445653e-07 0.000000000000e+00 -8.139419757749e-03 1.277805929100e-06 0.000000000000e+00 -9.131166092941e-03 1.341134249152e-06 0.000000000000e+00 -8.206237140633e-03 1.360181211490e-06 0.000000000000e+00 -9.510625763155e-03 1.385197684298e-06 0.000000000000e+00 -7.154805751899e-03 1.416190413379e-06 0.000000000000e+00 -7.755439808880e-03 1.390147487639e-06 0.000000000000e+00 -9.122725246523e-03 1.415891081785e-06 0.000000000000e+00 -8.292445915322e-03 1.253533912421e-06 0.000000000000e+00 -1.176128621793e-02 1.331398554201e-06 0.000000000000e+00 -1.055367974510e-02 1.308918097633e-06 0.000000000000e+00 -1.086735531059e-02 1.361814262149e-06 0.000000000000e+00 -1.001664408052e-02 1.331260690587e-06 0.000000000000e+00 -1.094149728436e-02 1.231358729006e-06 0.000000000000e+00 -1.224591977069e-02 1.306884757199e-06 0.000000000000e+00 -1.173980185571e-02 1.251729089187e-06 0.000000000000e+00 -1.257759526394e-02 1.021525557815e-06 0.000000000000e+00 -1.392730893868e-02 1.129181244205e-06 0.000000000000e+00 -1.346062664592e-02 9.596166229350e-07 0.000000000000e+00 -1.434884352092e-02 1.067631968541e-06 0.000000000000e+00 -1.367697520128e-02 9.372629458529e-07 0.000000000000e+00 -1.498164233898e-02 1.160952860518e-06 0.000000000000e+00 -1.287860922376e-02 1.141536808859e-06 0.000000000000e+00 -1.319233995795e-02 1.060090535326e-06 0.000000000000e+00 -1.430983384018e-02 1.155594116171e-06 0.000000000000e+00 -1.319244552503e-02 9.719278402818e-07 0.000000000000e+00 -1.569655377504e-02 1.002277926891e-06 0.000000000000e+00 -1.581685424133e-02 9.048608130690e-07 0.000000000000e+00 -1.720351950111e-02 9.328264872832e-07 0.000000000000e+00 -1.569646749119e-02 8.558540760267e-07 0.000000000000e+00 -1.636845314863e-02 8.200912728876e-07 0.000000000000e+00 -1.767316884221e-02 8.169298112705e-07 0.000000000000e+00 -1.695840565545e-02 8.387309885570e-07 0.000000000000e+00 -1.785235150320e-02 8.334693604875e-07 0.000000000000e+00 -1.909292323540e-02 8.941887259276e-07 0.000000000000e+00 -1.868214484449e-02 8.055100679840e-07 0.000000000000e+00 -1.956782692916e-02 8.031313248301e-07 0.000000000000e+00 -1.905995459371e-02 7.947731414125e-07 0.000000000000e+00 -2.036462938249e-02 8.326208510921e-07 0.000000000000e+00 -1.847001064944e-02 8.626089526016e-07 0.000000000000e+00 -1.859026937240e-02 8.316286169173e-07 0.000000000000e+00 -2.017202049486e-02 8.889036088624e-07 0.000000000000e+00 -1.890553537107e-02 7.977180045467e-07 0.000000000000e+00 -2.308559235627e-02 8.134659358785e-07 0.000000000000e+00 -2.155875991042e-02 8.292066168236e-07 0.000000000000e+00 -2.201410278333e-02 7.982990816986e-07 0.000000000000e+00 -2.124352006691e-02 7.880553165170e-07 0.000000000000e+00 -2.175137701880e-02 7.817391011549e-07 0.000000000000e+00 -2.305602479075e-02 7.947707068501e-07 0.000000000000e+00 -2.217714938312e-02 8.065637807032e-07 0.000000000000e+00 -2.294745670133e-02 7.959205857674e-07 0.000000000000e+00 -2.451315901424e-02 8.213389766085e-07 0.000000000000e+00 -2.397881925282e-02 7.777020566675e-07 0.000000000000e+00 -2.478642881686e-02 7.743307870036e-07 0.000000000000e+00 -2.444275163182e-02 7.666051333819e-07 0.000000000000e+00 -2.574738526199e-02 7.800683981618e-07 0.000000000000e+00 -2.401698720674e-02 7.871376444570e-07 0.000000000000e+00 -2.447231802812e-02 7.770220257578e-07 0.000000000000e+00 -2.589866115424e-02 7.969441418119e-07 0.000000000000e+00 -2.496727305705e-02 7.413678711699e-07 0.000000000000e+00 -3.151872059315e-02 7.505664209565e-07 0.000000000000e+00 -3.008305196127e-02 7.568289928816e-07 0.000000000000e+00 -3.065121239506e-02 6.761515750141e-07 0.000000000000e+00 -3.818491369649e-02 6.865538547008e-07 0.000000000000e+00 -3.679821048283e-02 6.903425566483e-07 0.000000000000e+00 -3.788408579395e-02 6.779330825681e-07 0.000000000000e+00 -4.204420903807e-02 6.814946920883e-07 0.000000000000e+00 -4.094387206771e-02 6.957149885815e-07 0.000000000000e+00 -4.094388584106e-02 6.080435049421e-07 0.000000000000e+00 -4.810054817541e-02 6.171727571442e-07 0.000000000000e+00 -4.663565212727e-02 6.371562979995e-07 0.000000000000e+00 -4.643888321670e-02 6.214518531470e-07 0.000000000000e+00 -5.408196962619e-02 6.248238855071e-07 0.000000000000e+00 -5.284416407130e-02 6.427832530902e-07 0.000000000000e+00 -5.316277085820e-02 5.445227773327e-07 0.000000000000e+00 -6.346872998023e-02 5.468021165333e-07 0.000000000000e+00 -6.217002710470e-02 5.856547695783e-07 0.000000000000e+00 -6.318668514817e-02 5.657534981899e-07 0.000000000000e+00 -6.894409728012e-02 5.491701681539e-07 0.000000000000e+00 -6.764541538479e-02 6.003176195661e-07 0.000000000000e+00 -6.838143215221e-02 6.409929843094e-07 0.000000000000e+00 -7.427617114646e-02 6.283331637709e-07 0.000000000000e+00 -7.297747414519e-02 6.693129738849e-07 0.000000000000e+00 -7.357626787833e-02 5.724485897883e-07 0.000000000000e+00 -7.946474651653e-02 6.348375956316e-07 0.000000000000e+00 -7.816602556986e-02 6.145512991737e-07 0.000000000000e+00 -7.877100533526e-02 5.212521357701e-07 0.000000000000e+00 -8.289517392306e-02 5.457694993556e-07 0.000000000000e+00 -8.175821005489e-02 5.377552984803e-07 0.000000000000e+00 -8.198614063080e-02 5.511148829606e-07 0.000000000000e+00 -8.136849604994e-02 5.732150303100e-07 0.000000000000e+00 -8.045946241980e-02 6.047507566230e-07 0.000000000000e+00 -7.921101812493e-02 5.948463953269e-07 0.000000000000e+00 -7.960073426781e-02 6.396824008744e-07 0.000000000000e+00 -7.791229976290e-02 6.671341464863e-07 0.000000000000e+00 -7.658385325248e-02 6.539590233022e-07 0.000000000000e+00 -7.702383992583e-02 6.750454171653e-07 0.000000000000e+00 -7.617362776692e-02 6.796761221786e-07 0.000000000000e+00 -7.528516735610e-02 6.801144484299e-07 0.000000000000e+00 -7.395714446430e-02 6.810630228514e-07 0.000000000000e+00 -7.436736011754e-02 6.743921308543e-07 0.000000000000e+00 -7.265844675469e-02 6.683519834027e-07 0.000000000000e+00 -7.137781523697e-02 6.739213011730e-07 0.000000000000e+00 -7.175869687507e-02 6.621559208090e-07 0.000000000000e+00 -7.097883923462e-02 6.740161070648e-07 0.000000000000e+00 -7.007905838281e-02 6.550120617339e-07 0.000000000000e+00 -6.884722739048e-02 6.872066676075e-07 0.000000000000e+00 -6.924618662282e-02 6.395417438940e-07 0.000000000000e+00 -6.754859016898e-02 6.310512032754e-07 0.000000000000e+00 -6.633174058974e-02 6.744993737465e-07 0.000000000000e+00 -6.679756183047e-02 5.893437663285e-07 0.000000000000e+00 -6.578407981145e-02 6.233904188277e-07 0.000000000000e+00 -6.503304930314e-02 6.229276170887e-07 0.000000000000e+00 -6.374942230125e-02 6.572971667227e-07 0.000000000000e+00 -6.429708436236e-02 6.191090281420e-07 0.000000000000e+00 -6.245072084437e-02 6.254697266508e-07 0.000000000000e+00 -6.085869088569e-02 6.564353968048e-07 0.000000000000e+00 -6.142142764216e-02 5.860637499680e-07 0.000000000000e+00 -6.058927630007e-02 6.241457343027e-07 0.000000000000e+00 -5.955998447894e-02 6.194177972816e-07 0.000000000000e+00 -5.799191407475e-02 6.524963534280e-07 0.000000000000e+00 -5.826132779178e-02 6.207839732223e-07 0.000000000000e+00 -5.669320500144e-02 5.900059582565e-07 0.000000000000e+00 -5.799186057145e-02 6.178637246765e-07 0.000000000000e+00 -5.554686417841e-02 6.435508387830e-07 0.000000000000e+00 -5.554691693374e-02 5.974756715417e-07 0.000000000000e+00 -5.522825694218e-02 5.637903332786e-07 0.000000000000e+00 -5.669458640549e-02 5.700181465862e-07 0.000000000000e+00 -5.522969205199e-02 5.424872117018e-07 0.000000000000e+00 -5.529623686320e-02 5.765310003919e-07 0.000000000000e+00 -5.382990839276e-02 5.838852426001e-07 0.000000000000e+00 -5.236501300988e-02 6.083703572757e-07 0.000000000000e+00 -5.229846674576e-02 6.298740846588e-07 0.000000000000e+00 -5.137926866042e-02 6.380076651771e-07 0.000000000000e+00 -4.997815150590e-02 6.525727970414e-07 0.000000000000e+00 -5.052384825312e-02 6.217475818112e-07 0.000000000000e+00 -4.936867526349e-02 6.441360514800e-07 0.000000000000e+00 -4.851325566426e-02 6.569542028099e-07 0.000000000000e+00 -4.672561983905e-02 6.712167859504e-07 0.000000000000e+00 -4.733509519986e-02 6.639428417529e-07 0.000000000000e+00 -4.526072375772e-02 6.698727995080e-07 0.000000000000e+00 -4.350910533877e-02 6.872932128566e-07 0.000000000000e+00 -4.379584107991e-02 6.542166302319e-07 0.000000000000e+00 -4.350909090214e-02 6.418839120831e-07 0.000000000000e+00 -4.415329180166e-02 6.513593419985e-07 0.000000000000e+00 -4.268839560976e-02 6.334046024368e-07 0.000000000000e+00 -4.301538687671e-02 6.403860347237e-07 0.000000000000e+00 -4.207352550662e-02 6.456298191206e-07 0.000000000000e+00 -4.239073488315e-02 6.576090212917e-07 0.000000000000e+00 -4.174653415754e-02 6.670104992289e-07 0.000000000000e+00 -4.035983143514e-02 6.720876027875e-07 0.000000000000e+00 -4.065749188598e-02 6.897689949400e-07 0.000000000000e+00 -3.955716909703e-02 6.965950800413e-07 0.000000000000e+00 -3.837998030276e-02 7.052724802820e-07 0.000000000000e+00 -3.866636004349e-02 7.052262718043e-07 0.000000000000e+00 -3.699327677047e-02 7.142639292478e-07 0.000000000000e+00 -3.569789277686e-02 7.203202035612e-07 0.000000000000e+00 -3.619378707457e-02 7.090764153120e-07 0.000000000000e+00 -3.511067820695e-02 7.230145696734e-07 0.000000000000e+00 -3.431118813407e-02 7.326390597162e-07 0.000000000000e+00 -3.290542728249e-02 7.382945850186e-07 0.000000000000e+00 -3.349264202838e-02 7.278443067302e-07 0.000000000000e+00 -3.233726776036e-02 7.182650954204e-07 0.000000000000e+00 -3.261193301425e-02 7.286455545575e-07 0.000000000000e+00 -3.122522682020e-02 7.307450762726e-07 0.000000000000e+00 -3.066593549343e-02 7.374087088503e-07 0.000000000000e+00 -3.039126950985e-02 7.461516714013e-07 0.000000000000e+00 -2.956385215179e-02 7.467989121738e-07 0.000000000000e+00 -2.900456032876e-02 7.592524693621e-07 0.000000000000e+00 -2.869634172871e-02 7.681083420095e-07 0.000000000000e+00 -2.728537729979e-02 7.754776090924e-07 0.000000000000e+00 -2.780457940574e-02 7.635583669102e-07 0.000000000000e+00 -2.679042751789e-02 7.576912869488e-07 0.000000000000e+00 -2.713410111564e-02 7.487881285520e-07 0.000000000000e+00 -2.843872708719e-02 7.417414510956e-07 0.000000000000e+00 -2.926614509969e-02 7.342669721868e-07 0.000000000000e+00 -3.010010262023e-02 7.229904222159e-07 0.000000000000e+00 -3.121162135333e-02 7.112918927001e-07 0.000000000000e+00 -3.240318399811e-02 7.120962516265e-07 0.000000000000e+00 -3.211491251166e-02 7.099933956025e-07 0.000000000000e+00 -3.289967932697e-02 7.076730776359e-07 0.000000000000e+00 -3.401172035021e-02 6.971461231061e-07 0.000000000000e+00 -3.539842458531e-02 6.857767498848e-07 0.000000000000e+00 -3.569925205732e-02 6.711535573528e-07 0.000000000000e+00 -3.651646675850e-02 6.571827178314e-07 0.000000000000e+00 -3.793790338060e-02 6.545613352395e-07 0.000000000000e+00 -3.735533155762e-02 6.620671431723e-07 0.000000000000e+00 -3.849882274905e-02 6.657922896694e-07 0.000000000000e+00 -3.958469886918e-02 6.509731693867e-07 0.000000000000e+00 -4.067374068893e-02 6.391645033878e-07 0.000000000000e+00 -4.129839250326e-02 6.187995836328e-07 0.000000000000e+00 -4.218116456824e-02 6.066387204676e-07 0.000000000000e+00 -4.360202710110e-02 5.971481074023e-07 0.000000000000e+00 -4.308501349249e-02 6.172771610794e-07 0.000000000000e+00 -4.409796193195e-02 6.232597312773e-07 0.000000000000e+00 -4.441517161977e-02 6.262454668130e-07 0.000000000000e+00 -4.523586738698e-02 5.965556227453e-07 0.000000000000e+00 -4.689753128181e-02 5.713819462497e-07 0.000000000000e+00 -4.784512064118e-02 5.581960975434e-07 0.000000000000e+00 -4.938871986050e-02 5.426705085168e-07 0.000000000000e+00 -4.893652357341e-02 5.771049883656e-07 0.000000000000e+00 -4.969710049087e-02 5.996964944835e-07 0.000000000000e+00 -4.950033280841e-02 5.913870298079e-07 0.000000000000e+00 -5.096522866917e-02 5.590348120935e-07 0.000000000000e+00 -5.249666923829e-02 5.263792093549e-07 0.000000000000e+00 -5.378036833086e-02 5.174929608207e-07 0.000000000000e+00 -5.529622902152e-02 4.927979896425e-07 0.000000000000e+00 -5.518014296880e-02 5.084066022765e-07 0.000000000000e+00 -5.669601198968e-02 5.064834255254e-07 0.000000000000e+00 -5.782066273890e-02 4.797611112975e-07 0.000000000000e+00 -5.782065385676e-02 5.274741063489e-07 0.000000000000e+00 -5.813503462184e-02 5.583102467037e-07 0.000000000000e+00 -5.813360111293e-02 5.539533271219e-07 0.000000000000e+00 -5.943230963594e-02 5.501995096884e-07 0.000000000000e+00 -6.073101689899e-02 5.144044485519e-07 0.000000000000e+00 -6.101306020378e-02 4.848183503183e-07 0.000000000000e+00 -6.191361699809e-02 4.745099814367e-07 0.000000000000e+00 -6.328896030734e-02 4.515154894912e-07 0.000000000000e+00 -6.275050709364e-02 5.044737450975e-07 0.000000000000e+00 -6.389107705364e-02 5.431405441421e-07 0.000000000000e+00 -6.490773318953e-02 5.436443792520e-07 0.000000000000e+00 -6.620642677728e-02 5.025399300326e-07 0.000000000000e+00 -6.676907871046e-02 4.589519973370e-07 0.000000000000e+00 -6.792361693754e-02 4.757671304548e-07 0.000000000000e+00 -6.964707798631e-02 4.205960452458e-07 0.000000000000e+00 -6.936261601883e-02 5.258937233669e-07 0.000000000000e+00 -6.964707316303e-02 5.972467884084e-07 0.000000000000e+00 -7.038310080117e-02 6.170823958519e-07 0.000000000000e+00 -7.168182059239e-02 5.589992719473e-07 0.000000000000e+00 -7.238173475991e-02 5.109910849065e-07 0.000000000000e+00 -7.343446701448e-02 5.184590500305e-07 0.000000000000e+00 -7.454700074576e-02 4.581649585605e-07 0.000000000000e+00 -7.430408227877e-02 5.836611823727e-07 0.000000000000e+00 -7.497301203554e-02 6.568196765785e-07 0.000000000000e+00 -7.557178606838e-02 6.648417555778e-07 0.000000000000e+00 -7.687043577151e-02 6.415944535339e-07 0.000000000000e+00 -7.756416819130e-02 5.723697766861e-07 0.000000000000e+00 -7.835273420263e-02 5.400925446510e-07 0.000000000000e+00 -7.965329792421e-02 5.188439088114e-07 0.000000000000e+00 -7.914632661710e-02 5.084675670627e-07 0.000000000000e+00 -8.015546649230e-02 5.394466973254e-07 0.000000000000e+00 -8.076046467796e-02 5.380129134821e-07 0.000000000000e+00 -8.205923338680e-02 5.360400668005e-07 0.000000000000e+00 -8.274693274867e-02 5.393542884291e-07 0.000000000000e+00 -8.335491129140e-02 5.202154210109e-07 0.000000000000e+00 -8.357281514244e-02 5.542014075230e-07 0.000000000000e+00 -8.488211185299e-02 4.850115349230e-07 0.000000000000e+00 -8.441237321297e-02 5.249387413418e-07 0.000000000000e+00 -8.533819229348e-02 5.125665701689e-07 0.000000000000e+00 -8.465364041608e-02 5.057715445639e-07 0.000000000000e+00 -8.396599643371e-02 4.874863063506e-07 0.000000000000e+00 -8.419393449313e-02 4.541712093116e-07 0.000000000000e+00 -8.526441440009e-02 4.791445064765e-07 0.000000000000e+00 -8.419357912697e-02 3.852278230238e-07 0.000000000000e+00 -9.018122114057e-02 3.733249469889e-07 0.000000000000e+00 -9.048899628530e-02 3.831599050869e-07 0.000000000000e+00 -9.082910157090e-02 3.699816766277e-07 0.000000000000e+00 -9.178586308860e-02 3.626242454067e-07 0.000000000000e+00 -9.144575972235e-02 3.612048348046e-07 0.000000000000e+00 -9.209474669249e-02 3.534692956708e-07 0.000000000000e+00 -9.126249037933e-02 3.505474302253e-07 0.000000000000e+00 -9.141932403344e-02 3.509020487296e-07 0.000000000000e+00 -9.191147623414e-02 3.477278792636e-07 0.000000000000e+00 -9.402216266531e-02 3.437978699179e-07 0.000000000000e+00 -9.434272670824e-02 3.471940419439e-07 0.000000000000e+00 -9.467114496079e-02 3.865521256405e-07 0.000000000000e+00 -9.764790957744e-02 3.967884907671e-07 0.000000000000e+00 -9.751660152803e-02 3.904078530951e-07 0.000000000000e+00 -9.686874182047e-02 3.474356653780e-07 0.000000000000e+00 -9.661589516427e-02 3.441076367111e-07 0.000000000000e+00 -9.693426467887e-02 3.475318464739e-07 0.000000000000e+00 -9.726487539151e-02 3.486284388079e-07 0.000000000000e+00 -9.915526976513e-02 3.458420538558e-07 0.000000000000e+00 -9.941709432025e-02 3.491493491458e-07 0.000000000000e+00 -9.980424901083e-02 3.526629112904e-07 0.000000000000e+00 -1.001914035629e-01 3.497840205304e-07 0.000000000000e+00 -1.004532281278e-01 3.470499624677e-07 0.000000000000e+00 -1.006787425055e-01 3.503065091456e-07 0.000000000000e+00 -1.010658970182e-01 3.532776896720e-07 0.000000000000e+00 -1.030128338860e-01 3.510489408127e-07 0.000000000000e+00 -1.032462451899e-01 3.544446880217e-07 0.000000000000e+00 -1.036697096965e-01 3.590079824513e-07 0.000000000000e+00 -1.056166469595e-01 3.575308024994e-07 0.000000000000e+00 -1.058707596271e-01 3.609631429014e-07 0.000000000000e+00 -1.062863273934e-01 3.672785650317e-07 0.000000000000e+00 -1.082332658949e-01 3.665087894064e-07 0.000000000000e+00 -1.084824280929e-01 3.698332448868e-07 0.000000000000e+00 -1.088772949420e-01 3.780228185489e-07 0.000000000000e+00 -1.108242351931e-01 3.777925495431e-07 0.000000000000e+00 -1.110762098277e-01 3.811324917980e-07 0.000000000000e+00 -1.114760277899e-01 3.913277842438e-07 0.000000000000e+00 -1.134229701351e-01 3.907666062886e-07 0.000000000000e+00 -1.134523628368e-01 3.942648085554e-07 0.000000000000e+00 -1.138493690235e-01 3.967714056992e-07 0.000000000000e+00 -1.141735919069e-01 3.962392359245e-07 0.000000000000e+00 -1.142029846594e-01 3.982834983659e-07 0.000000000000e+00 -1.141867583720e-01 4.002754592363e-07 0.000000000000e+00 -1.145403740855e-01 4.044184361521e-07 0.000000000000e+00 -1.140822710853e-01 4.034847776755e-07 0.000000000000e+00 -1.141868355723e-01 4.060087384788e-07 0.000000000000e+00 -1.144490273759e-01 4.015962584691e-07 0.000000000000e+00 -1.134945510664e-01 4.040174684278e-07 0.000000000000e+00 -1.137567426176e-01 3.899584745126e-07 0.000000000000e+00 -1.106788460597e-01 3.921686325925e-07 0.000000000000e+00 -1.113602628293e-01 3.930191174998e-07 0.000000000000e+00 -1.110647468446e-01 3.817238100025e-07 0.000000000000e+00 -1.078117648758e-01 3.836788136673e-07 0.000000000000e+00 -1.085445605118e-01 3.852726919930e-07 0.000000000000e+00 -1.082276772841e-01 3.776126537278e-07 0.000000000000e+00 -1.050222757154e-01 3.784395445809e-07 0.000000000000e+00 -1.056774816587e-01 3.810518763842e-07 0.000000000000e+00 -1.054168202523e-01 3.775304420716e-07 0.000000000000e+00 -1.022870207094e-01 3.771389833989e-07 0.000000000000e+00 -1.028879940905e-01 3.810853182190e-07 0.000000000000e+00 -1.027377865376e-01 3.780518843780e-07 0.000000000000e+00 -1.015755936747e-01 3.826596929836e-07 0.000000000000e+00 -1.014253861447e-01 3.788053697174e-07 0.000000000000e+00 -1.008641666370e-01 3.736993872892e-07 0.000000000000e+00 -1.017258009748e-01 3.684432246952e-07 0.000000000000e+00 -1.006151629649e-01 3.629394657368e-07 0.000000000000e+00 -1.009273788208e-01 3.683234170865e-07 0.000000000000e+00 -1.013265901025e-01 3.683850204235e-07 0.000000000000e+00 -1.020380172109e-01 3.636369638513e-07 0.000000000000e+00 -1.022877848052e-01 3.587193816109e-07 0.000000000000e+00 -1.018885733165e-01 3.594213135448e-07 0.000000000000e+00 -1.025375521706e-01 3.686070169221e-07 0.000000000000e+00 -1.026869959626e-01 3.690325172937e-07 0.000000000000e+00 -1.033984231152e-01 3.649625478726e-07 0.000000000000e+00 -1.036481908319e-01 3.696566309725e-07 0.000000000000e+00 -1.041098503355e-01 3.735462062911e-07 0.000000000000e+00 -1.031486551323e-01 3.770586705091e-07 0.000000000000e+00 -1.035994212062e-01 3.772159619082e-07 0.000000000000e+00 -1.043108484065e-01 3.804191619020e-07 0.000000000000e+00 -1.040501871079e-01 3.742635445287e-07 0.000000000000e+00 -1.045715095424e-01 3.704844969657e-07 0.000000000000e+00 -1.048212776487e-01 3.669612280631e-07 0.000000000000e+00 -1.050085971130e-01 3.624679630628e-07 0.000000000000e+00 -1.045469372979e-01 3.637519918600e-07 0.000000000000e+00 -1.051959163487e-01 3.714231874242e-07 0.000000000000e+00 -1.054702566811e-01 3.726536236730e-07 0.000000000000e+00 -1.061816842311e-01 3.696717851607e-07 0.000000000000e+00 -1.063690038108e-01 3.741009614104e-07 0.000000000000e+00 -1.068931119314e-01 3.758817156322e-07 0.000000000000e+00 -1.059943644007e-01 3.792854438967e-07 0.000000000000e+00 -1.063889092309e-01 3.803791952182e-07 0.000000000000e+00 -1.071003369653e-01 3.825674487507e-07 0.000000000000e+00 -1.067834539170e-01 3.784278311423e-07 0.000000000000e+00 -1.074172198592e-01 3.757692768227e-07 0.000000000000e+00 -1.076045397971e-01 3.731287960734e-07 0.000000000000e+00 -1.077294110532e-01 3.687159183850e-07 0.000000000000e+00 -1.072053025571e-01 3.706517378201e-07 0.000000000000e+00 -1.078542820812e-01 3.774880418158e-07 0.000000000000e+00 -1.082535193885e-01 3.795878449736e-07 0.000000000000e+00 -1.089649476045e-01 3.773603723191e-07 0.000000000000e+00 -1.090898189368e-01 3.819176404911e-07 0.000000000000e+00 -1.096763760200e-01 3.819270474653e-07 0.000000000000e+00 -1.088400760311e-01 3.855143657644e-07 0.000000000000e+00 -1.092559888157e-01 3.876070612875e-07 0.000000000000e+00 -1.099674173287e-01 3.889797059468e-07 0.000000000000e+00 -1.096719014616e-01 3.863973091471e-07 0.000000000000e+00 -1.102629330061e-01 3.844801406567e-07 0.000000000000e+00 -1.103878046439e-01 3.823904513243e-07 0.000000000000e+00 -1.104502275399e-01 3.777205625404e-07 0.000000000000e+00 -1.098636700432e-01 3.803605789424e-07 0.000000000000e+00 -1.105126502101e-01 3.870237127950e-07 0.000000000000e+00 -1.110367849608e-01 3.900374021504e-07 0.000000000000e+00 -1.117482140043e-01 3.882389719999e-07 0.000000000000e+00 -1.118106369213e-01 3.932900949897e-07 0.000000000000e+00 -1.124596432767e-01 3.918556336376e-07 0.000000000000e+00 -1.116857908538e-01 3.950499181308e-07 0.000000000000e+00 -1.120716920042e-01 3.981921983381e-07 0.000000000000e+00 -1.127831214150e-01 3.981824257516e-07 0.000000000000e+00 -1.124575930927e-01 3.983167612987e-07 0.000000000000e+00 -1.131086496256e-01 3.967834886810e-07 0.000000000000e+00 -1.131710727832e-01 3.949211378489e-07 0.000000000000e+00 -1.131710471285e-01 3.896699648440e-07 0.000000000000e+00 -1.125220403406e-01 3.930493149927e-07 0.000000000000e+00 -1.131710212550e-01 4.001816586448e-07 0.000000000000e+00 -1.138200539243e-01 4.017787093372e-07 0.000000000000e+00 -1.141868100587e-01 4.000407821506e-07 0.000000000000e+00 -1.141867843221e-01 4.034586628994e-07 0.000000000000e+00 -1.145535662363e-01 3.966115972356e-07 0.000000000000e+00 -1.138200023618e-01 3.911808376468e-07 0.000000000000e+00 -1.131709951733e-01 3.877592475057e-07 0.000000000000e+00 -1.127739891669e-01 3.843612823235e-07 0.000000000000e+00 -1.121250083870e-01 3.843593641699e-07 0.000000000000e+00 -1.123769831512e-01 3.844436784212e-07 0.000000000000e+00 -1.118730335561e-01 3.864732699561e-07 0.000000000000e+00 -1.118730596158e-01 3.831786191088e-07 0.000000000000e+00 -1.111616305515e-01 3.784020863479e-07 0.000000000000e+00 -1.105750726692e-01 3.751292037885e-07 0.000000000000e+00 -1.101752549459e-01 3.724000148253e-07 0.000000000000e+00 -1.095262748645e-01 3.718770293637e-07 0.000000000000e+00 -1.097754371937e-01 3.730424497219e-07 0.000000000000e+00 -1.092771124688e-01 3.752564218715e-07 0.000000000000e+00 -1.092146900448e-01 3.727553926761e-07 0.000000000000e+00 -1.085032617494e-01 3.683466250225e-07 0.000000000000e+00 -1.079791529019e-01 3.650201282885e-07 0.000000000000e+00 -1.075842862642e-01 3.629162658134e-07 0.000000000000e+00 -1.069353067674e-01 3.617271312064e-07 0.000000000000e+00 -1.071894195571e-01 3.642934599389e-07 0.000000000000e+00 -1.066811939024e-01 3.669442497031e-07 0.000000000000e+00 -1.065563231672e-01 3.651890952053e-07 0.000000000000e+00 -1.058448954944e-01 3.608573204372e-07 0.000000000000e+00 -1.053832353863e-01 3.573472775155e-07 0.000000000000e+00 -1.049676677953e-01 3.558273030536e-07 0.000000000000e+00 -1.043186887135e-01 3.539066902325e-07 0.000000000000e+00 -1.045521001013e-01 3.580094733463e-07 0.000000000000e+00 -1.040852772485e-01 3.613330453407e-07 0.000000000000e+00 -1.038979583259e-01 3.602576961882e-07 0.000000000000e+00 -1.031865310390e-01 3.557188453266e-07 0.000000000000e+00 -1.027873193531e-01 3.521624253639e-07 0.000000000000e+00 -1.023638549388e-01 3.511735531901e-07 0.000000000000e+00 -1.017148759921e-01 3.487287123881e-07 0.000000000000e+00 -1.019403903953e-01 3.539486837646e-07 0.000000000000e+00 -1.014893615306e-01 3.581468231395e-07 0.000000000000e+00 -1.012395944500e-01 3.576639609642e-07 0.000000000000e+00 -1.005281671604e-01 3.573444958592e-07 0.000000000000e+00 -9.987918816672e-02 3.628177765444e-07 0.000000000000e+00 -9.956697260752e-02 3.571362468039e-07 0.000000000000e+00 -9.923020905458e-02 3.570323409781e-07 0.000000000000e+00 -9.858122977984e-02 3.518247936159e-07 0.000000000000e+00 -9.889344517418e-02 3.482167473829e-07 0.000000000000e+00 -9.850629034628e-02 3.477400434476e-07 0.000000000000e+00 -9.791385528575e-02 3.447546952253e-07 0.000000000000e+00 -9.817567995015e-02 3.513982118209e-07 0.000000000000e+00 -9.759548600993e-02 3.570281292449e-07 0.000000000000e+00 -9.793336190113e-02 3.571114164482e-07 0.000000000000e+00 -9.728438214295e-02 3.631800284347e-07 0.000000000000e+00 -9.827012584409e-02 3.703612210478e-07 0.000000000000e+00 -9.795902167253e-02 3.696928763583e-07 0.000000000000e+00 -9.860688933942e-02 3.763894525280e-07 0.000000000000e+00 -9.894365230722e-02 3.691486365594e-07 0.000000000000e+00 -9.925475681535e-02 3.687375749362e-07 0.000000000000e+00 -9.990373575620e-02 3.746917105536e-07 0.000000000000e+00 -1.003029468111e-01 3.797892886500e-07 0.000000000000e+00 -1.001527395574e-01 3.819381362252e-07 0.000000000000e+00 -9.959151189577e-02 3.860615852476e-07 0.000000000000e+00 -1.001527314564e-01 3.832791306141e-07 0.000000000000e+00 -9.894364462211e-02 3.904572276093e-07 0.000000000000e+00 -9.894363647185e-02 3.848160883877e-07 0.000000000000e+00 -9.829577719757e-02 3.786566540808e-07 0.000000000000e+00 -9.764791714882e-02 3.711455292763e-07 0.000000000000e+00 -9.731115375980e-02 3.720332647593e-07 0.000000000000e+00 -9.666217392700e-02 3.639421247756e-07 0.000000000000e+00 -9.697327814917e-02 3.572787186346e-07 0.000000000000e+00 -9.663540204842e-02 3.575253208928e-07 0.000000000000e+00 -9.598642154002e-02 3.513582774188e-07 0.000000000000e+00 -9.629752561772e-02 3.474589398380e-07 0.000000000000e+00 -9.596691453976e-02 3.468648668526e-07 0.000000000000e+00 -9.532012660990e-02 3.435282742406e-07 0.000000000000e+00 -9.563849661625e-02 3.517320824150e-07 0.000000000000e+00 -9.499956341144e-02 3.578512356448e-07 0.000000000000e+00 -9.533855213828e-02 3.582553934436e-07 0.000000000000e+00 -9.468957051313e-02 3.650259500519e-07 0.000000000000e+00 -9.567642898280e-02 3.740706977027e-07 0.000000000000e+00 -9.536643622238e-02 3.730141840144e-07 0.000000000000e+00 -9.601430531618e-02 3.815159174714e-07 0.000000000000e+00 -9.635218094177e-02 3.926978573247e-07 0.000000000000e+00 -9.622087359228e-02 4.049710283958e-07 0.000000000000e+00 -9.608956533706e-02 3.951770245973e-07 0.000000000000e+00 -9.557300496130e-02 3.981783610396e-07 0.000000000000e+00 -9.413096965167e-02 3.978387629896e-07 0.000000000000e+00 -9.492513582030e-02 4.100474213898e-07 0.000000000000e+00 -9.464753155644e-02 3.848648200506e-07 0.000000000000e+00 -9.505644308293e-02 3.751876058232e-07 0.000000000000e+00 -9.471856652604e-02 3.763504885275e-07 0.000000000000e+00 -9.406958446634e-02 3.663567431634e-07 0.000000000000e+00 -9.437957757279e-02 3.587535658750e-07 0.000000000000e+00 -9.404058815050e-02 3.593734328636e-07 0.000000000000e+00 -9.339160490399e-02 3.526526421807e-07 0.000000000000e+00 -9.370159862186e-02 3.485235696988e-07 0.000000000000e+00 -9.337317963134e-02 3.490262364328e-07 0.000000000000e+00 -9.256046112798e-02 3.455269281586e-07 0.000000000000e+00 -9.288102681363e-02 3.545104038651e-07 0.000000000000e+00 -9.240363028579e-02 3.601648077563e-07 0.000000000000e+00 -9.274373222477e-02 3.679358300118e-07 0.000000000000e+00 -9.308272280250e-02 3.788108085372e-07 0.000000000000e+00 -9.277384058864e-02 3.775593472430e-07 0.000000000000e+00 -9.342171309652e-02 3.885726332532e-07 0.000000000000e+00 -9.376070259492e-02 4.009599284061e-07 0.000000000000e+00 -9.348309877192e-02 4.153635498634e-07 0.000000000000e+00 -9.320549411376e-02 4.038857067454e-07 0.000000000000e+00 -9.283522682040e-02 4.083060719698e-07 0.000000000000e+00 -9.154270708248e-02 4.069279352733e-07 0.000000000000e+00 -9.218735350420e-02 4.222574498153e-07 0.000000000000e+00 -9.191297676267e-02 3.925506610290e-07 0.000000000000e+00 -9.246495802346e-02 3.801183793570e-07 0.000000000000e+00 -9.212596667244e-02 3.815279664005e-07 0.000000000000e+00 -9.147697938648e-02 3.967395583785e-07 0.000000000000e+00 -9.116920696519e-02 4.114322265759e-07 0.000000000000e+00 -9.089482965050e-02 4.295114537425e-07 0.000000000000e+00 -9.062045127543e-02 4.148103710672e-07 0.000000000000e+00 -9.024694921125e-02 4.302518047749e-07 0.000000000000e+00 -8.833376810164e-02 4.589882078856e-07 0.000000000000e+00 -8.808986403061e-02 4.410505233094e-07 0.000000000000e+00 -8.768586786212e-02 5.128416847719e-07 0.000000000000e+00 -8.575796563608e-02 5.553724780272e-07 0.000000000000e+00 -8.552988418650e-02 5.634406380274e-07 0.000000000000e+00 -8.511012816085e-02 5.341822980171e-07 0.000000000000e+00 -8.315987862124e-02 5.173255163507e-07 0.000000000000e+00 -8.292498461083e-02 5.240894051402e-07 0.000000000000e+00 -8.251204114312e-02 5.032180518990e-07 0.000000000000e+00 -8.055231320272e-02 5.271100638000e-07 0.000000000000e+00 -8.030126618669e-02 5.009124179764e-07 0.000000000000e+00 -7.990439462781e-02 6.256123208910e-07 0.000000000000e+00 -7.795846893509e-02 5.426730161329e-07 0.000000000000e+00 -7.770504189116e-02 5.967868005595e-07 0.000000000000e+00 -7.731072750196e-02 5.570797337980e-07 0.000000000000e+00 -7.540781891633e-02 5.210015647203e-07 0.000000000000e+00 -7.519481357994e-02 5.507024357118e-07 0.000000000000e+00 -7.476000801645e-02 5.363139939024e-07 0.000000000000e+00 -7.290810262508e-02 5.083592582272e-07 0.000000000000e+00 -7.278664546378e-02 5.317831990211e-07 0.000000000000e+00 -7.226027894678e-02 4.809095961462e-07 0.000000000000e+00 -6.734634728206e-02 4.575862251016e-07 0.000000000000e+00 -6.720411629134e-02 4.795224673836e-07 0.000000000000e+00 -6.662684774761e-02 4.868599625275e-07 0.000000000000e+00 -6.430952173633e-02 4.717583202342e-07 0.000000000000e+00 -6.400846367353e-02 4.890629774024e-07 0.000000000000e+00 -6.359001895438e-02 4.996505750492e-07 0.000000000000e+00 -6.146333878481e-02 4.883158920691e-07 0.000000000000e+00 -6.119411181717e-02 5.029333979980e-07 0.000000000000e+00 -6.074383330377e-02 5.129530601796e-07 0.000000000000e+00 -5.869735579307e-02 5.022685635517e-07 0.000000000000e+00 -5.854016979539e-02 5.168168633155e-07 0.000000000000e+00 -5.797784878664e-02 5.429105992289e-07 0.000000000000e+00 -5.313851898956e-02 5.312736575348e-07 0.000000000000e+00 -5.308047640324e-02 5.475494258860e-07 0.000000000000e+00 -5.243862695815e-02 5.625445226869e-07 0.000000000000e+00 -5.024280254676e-02 5.528768986719e-07 0.000000000000e+00 -5.008861207968e-02 5.675350194583e-07 0.000000000000e+00 -4.954291031080e-02 5.841131372628e-07 0.000000000000e+00 -4.737132609650e-02 5.769090503933e-07 0.000000000000e+00 -4.714522835961e-02 5.894097768832e-07 0.000000000000e+00 -4.667143378898e-02 6.062377835250e-07 0.000000000000e+00 -4.454988694571e-02 6.007452196808e-07 0.000000000000e+00 -4.430191940700e-02 6.118306822118e-07 0.000000000000e+00 -4.384999462260e-02 6.291186468761e-07 0.000000000000e+00 -4.173977867041e-02 6.249254937718e-07 0.000000000000e+00 -4.148127224265e-02 6.350012041598e-07 0.000000000000e+00 -4.103988631628e-02 6.533050811735e-07 0.000000000000e+00 -3.891825566617e-02 6.506962627604e-07 0.000000000000e+00 -3.863779585337e-02 6.594448490468e-07 0.000000000000e+00 -3.821836318480e-02 6.785875978026e-07 0.000000000000e+00 -3.610785957444e-02 6.777932067630e-07 0.000000000000e+00 -3.581657405587e-02 6.849182999308e-07 0.000000000000e+00 -3.540796676849e-02 7.039677030346e-07 0.000000000000e+00 -3.335132524050e-02 7.044575311336e-07 0.000000000000e+00 -3.310307747828e-02 7.104056008135e-07 0.000000000000e+00 -3.265143177530e-02 7.476125994742e-07 0.000000000000e+00 -2.872164373566e-02 7.438737326608e-07 0.000000000000e+00 -2.913535285587e-02 7.452874974638e-07 0.000000000000e+00 -2.885243629429e-02 7.362757235845e-07 0.000000000000e+00 -2.996604053763e-02 7.323230685028e-07 0.000000000000e+00 -3.038301910542e-02 7.380752030005e-07 0.000000000000e+00 -2.968312405355e-02 7.288374569276e-07 0.000000000000e+00 -3.065586234789e-02 7.299685194107e-07 0.000000000000e+00 -3.051172709131e-02 7.353314633162e-07 0.000000000000e+00 -2.995596767923e-02 7.794647584663e-07 0.000000000000e+00 -2.530211032602e-02 7.885795528986e-07 0.000000000000e+00 -2.516547477219e-02 7.854252241425e-07 0.000000000000e+00 -2.464979444134e-02 8.002414212471e-07 0.000000000000e+00 -2.256230404923e-02 8.128147706916e-07 0.000000000000e+00 -2.229513540981e-02 8.048623633847e-07 0.000000000000e+00 -2.190998092565e-02 8.143055972111e-07 0.000000000000e+00 -1.998271326667e-02 8.302283918633e-07 0.000000000000e+00 -1.974526259993e-02 8.165152409411e-07 0.000000000000e+00 -1.933037503222e-02 9.171459286798e-07 0.000000000000e+00 -1.638988796466e-02 9.350188476464e-07 0.000000000000e+00 -1.645003492943e-02 8.871859438441e-07 0.000000000000e+00 -1.714337917325e-02 8.203885460593e-07 0.000000000000e+00 -1.740537850515e-02 8.393500187416e-07 0.000000000000e+00 -1.719998343194e-02 8.228753601435e-07 0.000000000000e+00 -1.675300086353e-02 8.950027322828e-07 0.000000000000e+00 -1.479049313272e-02 9.111780625411e-07 0.000000000000e+00 -1.457973254937e-02 9.792882093371e-07 0.000000000000e+00 -1.413808591787e-02 1.052801552374e-06 0.000000000000e+00 -1.369649336976e-02 1.092014032836e-06 0.000000000000e+00 -1.348574350696e-02 1.205050113097e-06 0.000000000000e+00 -1.281088624469e-02 1.146323752021e-06 0.000000000000e+00 -1.325239764516e-02 1.279460783654e-06 0.000000000000e+00 -1.018559371967e-02 1.308587637948e-06 0.000000000000e+00 -1.085446629465e-02 1.242275253274e-06 0.000000000000e+00 -1.060457087750e-02 1.156527238477e-06 0.000000000000e+00 -7.580830208923e-03 1.179878382901e-06 0.000000000000e+00 -8.229046866831e-03 1.104581500689e-06 0.000000000000e+00 -7.983103645373e-03 1.081923450809e-06 0.000000000000e+00 -5.015411338388e-03 1.094538843305e-06 0.000000000000e+00 -5.624165911562e-03 1.036057597557e-06 0.000000000000e+00 -5.421681837225e-03 1.027210524212e-06 0.000000000000e+00 -2.496449456591e-03 1.041128533028e-06 0.000000000000e+00 -3.058706983954e-03 9.867639312542e-07 0.000000000000e+00 -2.946198250340e-03 1.372805391654e-06 0.000000000000e+00 -3.719553712735e-03 1.411914199710e-06 0.000000000000e+00 -3.861673954889e-03 1.383054463293e-06 0.000000000000e+00 -4.435033899740e-03 1.402744359128e-06 0.000000000000e+00 -6.739652163598e-03 1.420085493818e-06 0.000000000000e+00 -7.039969594477e-03 1.405730618896e-06 0.000000000000e+00 -7.455119488113e-03 1.376358295687e-06 0.000000000000e+00 -9.569687113478e-03 1.365651347580e-06 0.000000000000e+00 -9.838198800253e-03 1.348255179973e-06 0.000000000000e+00 -1.028515728020e-02 1.118015103084e-06 0.000000000000e+00 -1.327779189096e-02 1.151851870814e-06 0.000000000000e+00 -1.296142716367e-02 1.191985405608e-06 0.000000000000e+00 -1.256226079867e-02 1.290368871129e-06 0.000000000000e+00 -1.159369784095e-02 1.270339050037e-06 0.000000000000e+00 -1.199284644178e-02 1.319100808565e-06 0.000000000000e+00 -1.134065780340e-02 1.308467270259e-06 0.000000000000e+00 -1.119453500107e-02 1.259045347325e-06 0.000000000000e+00 -1.184676006530e-02 1.225701404473e-06 0.000000000000e+00 -1.216308813755e-02 1.210858113536e-06 0.000000000000e+00 -1.231994615410e-02 1.198780545235e-06 0.000000000000e+00 -1.247680437228e-02 1.149789784184e-06 0.000000000000e+00 -1.303547560347e-02 1.267415243104e-06 0.000000000000e+00 -1.160443676290e-02 1.308879612253e-06 0.000000000000e+00 -1.100063704473e-02 1.295342900650e-06 0.000000000000e+00 -1.115747790516e-02 1.329090657394e-06 0.000000000000e+00 -1.073211061316e-02 1.346584386293e-06 0.000000000000e+00 -1.047907591400e-02 1.354867648127e-06 0.000000000000e+00 -1.022606042870e-02 1.368012964137e-06 0.000000000000e+00 -9.763626124022e-03 1.353907572424e-06 0.000000000000e+00 -8.858434573719e-03 1.332014548922e-06 0.000000000000e+00 -9.320889750295e-03 1.313011435338e-06 0.000000000000e+00 -8.668701875664e-03 1.373210271799e-06 0.000000000000e+00 -8.395977146623e-03 1.375466289858e-06 0.000000000000e+00 -9.048178449322e-03 1.381639181822e-06 0.000000000000e+00 -9.301184452906e-03 1.393832767124e-06 0.000000000000e+00 -8.854222075121e-03 1.403409962668e-06 0.000000000000e+00 -8.170584567751e-03 1.406160789170e-06 0.000000000000e+00 -8.439082569839e-03 1.390821238427e-06 0.000000000000e+00 -7.870267946022e-03 1.364113992916e-06 0.000000000000e+00 -7.680522397400e-03 1.323157947989e-06 0.000000000000e+00 -7.490783495234e-03 1.350852671972e-06 0.000000000000e+00 -6.965061854901e-03 1.285538220125e-06 0.000000000000e+00 -6.123104543211e-03 1.245138837156e-06 0.000000000000e+00 -6.648834163635e-03 1.225017312191e-06 0.000000000000e+00 -5.996614124577e-03 1.320793031251e-06 0.000000000000e+00 -5.597374851253e-03 1.335485124465e-06 0.000000000000e+00 -6.249595556978e-03 1.375698454325e-06 0.000000000000e+00 -6.439339439523e-03 1.396098773552e-06 0.000000000000e+00 -6.024181810650e-03 1.392708127235e-06 0.000000000000e+00 -5.150511378054e-03 1.419697906290e-06 0.000000000000e+00 -5.450828018969e-03 1.351072367277e-06 0.000000000000e+00 -5.008394300450e-03 1.304742137167e-06 0.000000000000e+00 -4.881899175409e-03 1.250072388405e-06 0.000000000000e+00 -4.755404589430e-03 1.289259471740e-06 0.000000000000e+00 -4.166419637795e-03 1.249378590094e-06 0.000000000000e+00 -2.083216496875e-03 1.192786007072e-06 0.000000000000e+00 -2.019967374045e-03 1.237637901474e-06 0.000000000000e+00 -1.367727859130e-03 1.300781871821e-06 0.000000000000e+00 -2.146465315400e-03 1.262124060598e-06 0.000000000000e+00 -2.798703591592e-03 1.219157700908e-06 0.000000000000e+00 -3.387690485043e-03 1.172344196545e-06 0.000000000000e+00 -3.976677497561e-03 1.158121079083e-06 0.000000000000e+00 -3.324443344535e-03 1.274623294713e-06 0.000000000000e+00 -3.450936924829e-03 1.324951628142e-06 0.000000000000e+00 -3.577434931100e-03 1.362458065767e-06 0.000000000000e+00 -3.004071161000e-03 1.343000013682e-06 0.000000000000e+00 -2.146462479331e-03 1.388427837009e-06 0.000000000000e+00 -2.288584236995e-03 1.333212466436e-06 0.000000000000e+00 -1.430975965708e-03 1.363865310145e-06 0.000000000000e+00 -7.154874676474e-04 1.324124852374e-06 0.000000000000e+00 -7.154883440099e-04 1.315835245286e-06 0.000000000000e+00 0.000000000000e+00 1.279829266310e-06 0.000000000000e+00 -7.154893238870e-04 1.226872636996e-06 0.000000000000e+00 -6.522381214787e-04 1.217875643835e-06 0.000000000000e+00 0.000000000000e+00 1.170287692832e-06 0.000000000000e+00 -6.522390192020e-04 1.120463103714e-06 0.000000000000e+00 -1.304479053815e-03 1.109886013876e-06 0.000000000000e+00 -6.522397510260e-04 1.099877640242e-06 0.000000000000e+00 0.000000000000e+00 1.046499037823e-06 0.000000000000e+00 -6.522402393566e-04 9.722817490717e-07 0.000000000000e+00 0.000000000000e+00 9.948104554342e-07 0.000000000000e+00 -5.397305608494e-04 9.301664664499e-07 0.000000000000e+00 -5.397304896078e-04 1.005291395535e-06 0.000000000000e+00 -1.191970764318e-03 1.016039592223e-06 0.000000000000e+00 -1.844210479333e-03 9.630666546826e-07 0.000000000000e+00 -1.731700901484e-03 1.068239167549e-06 0.000000000000e+00 -1.956719397720e-03 1.131721907837e-06 0.000000000000e+00 -1.956717629890e-03 1.145007750991e-06 0.000000000000e+00 -2.672207342369e-03 1.092556373990e-06 0.000000000000e+00 -3.261194930159e-03 1.053644703481e-06 0.000000000000e+00 -3.710943699494e-03 1.067149582777e-06 0.000000000000e+00 -4.363178647845e-03 1.012514004000e-06 0.000000000000e+00 -4.160691459315e-03 1.120910391485e-06 0.000000000000e+00 -4.565663924449e-03 1.187832435339e-06 0.000000000000e+00 -4.628909302177e-03 1.206445659724e-06 0.000000000000e+00 -5.344389367497e-03 1.155169998401e-06 0.000000000000e+00 -5.870122212126e-03 1.112635002224e-06 0.000000000000e+00 -6.276392408617e-03 1.133104733825e-06 0.000000000000e+00 -6.928614314967e-03 1.065106072209e-06 0.000000000000e+00 -6.682660814067e-03 1.197578999039e-06 0.000000000000e+00 -7.174563152647e-03 1.266642416020e-06 0.000000000000e+00 -7.301048355572e-03 1.291144368658e-06 0.000000000000e+00 -8.016504256885e-03 1.249460799436e-06 0.000000000000e+00 -8.478975671737e-03 1.210328603479e-06 0.000000000000e+00 -8.881244582813e-03 1.244102367307e-06 0.000000000000e+00 -9.533428412694e-03 1.160378889413e-06 0.000000000000e+00 -9.283511536375e-03 1.305040785066e-06 0.000000000000e+00 -9.783342661491e-03 1.344117998306e-06 0.000000000000e+00 -9.973067953735e-03 1.342257399606e-06 0.000000000000e+00 -1.068848504225e-02 1.330775170508e-06 0.000000000000e+00 -1.108765289501e-02 1.319794401847e-06 0.000000000000e+00 -1.150658790002e-02 1.287241799774e-06 0.000000000000e+00 -1.215871205065e-02 1.303557718098e-06 0.000000000000e+00 -1.192549647766e-02 1.245970961046e-06 0.000000000000e+00 -1.239197626204e-02 1.197900317250e-06 0.000000000000e+00 -1.264506732080e-02 1.102895591193e-06 0.000000000000e+00 -1.336058935204e-02 1.016766249934e-06 0.000000000000e+00 -1.401290365381e-02 9.965532453373e-07 0.000000000000e+00 -1.432929774657e-02 9.436994369405e-07 0.000000000000e+00 -1.466525354352e-02 8.894819037746e-07 0.000000000000e+00 -1.531762381977e-02 8.916911742926e-07 0.000000000000e+00 -1.500123128585e-02 8.503301687888e-07 0.000000000000e+00 -1.544291911267e-02 8.301936845486e-07 0.000000000000e+00 -1.610060573830e-02 8.431136193606e-07 0.000000000000e+00 -1.588991517332e-02 8.280316060777e-07 0.000000000000e+00 -1.630602366184e-02 8.513527511054e-07 0.000000000000e+00 -1.601104765628e-02 8.293188192192e-07 0.000000000000e+00 -1.666342153913e-02 8.894265441904e-07 0.000000000000e+00 -1.567504550271e-02 8.923791779573e-07 0.000000000000e+00 -1.603245376204e-02 9.331895528163e-07 0.000000000000e+00 -1.533906097422e-02 9.776914801500e-07 0.000000000000e+00 -1.500308899509e-02 9.857539374775e-07 0.000000000000e+00 -1.464567716924e-02 1.045245122619e-06 0.000000000000e+00 -1.399335294989e-02 1.094396270281e-06 0.000000000000e+00 -1.359415438861e-02 1.088558261333e-06 0.000000000000e+00 -1.375102509245e-02 1.046018914587e-06 0.000000000000e+00 -1.430977976427e-02 1.099117024783e-06 0.000000000000e+00 -1.375108267329e-02 9.959220042548e-07 0.000000000000e+00 -1.500314057696e-02 1.013165346698e-06 0.000000000000e+00 -1.500318938755e-02 9.528445703065e-07 0.000000000000e+00 -1.569651120009e-02 8.970239989284e-07 0.000000000000e+00 -1.638985216760e-02 8.621450258363e-07 0.000000000000e+00 -1.672584964869e-02 8.414927031260e-07 0.000000000000e+00 -1.737819927748e-02 8.344519506494e-07 0.000000000000e+00 -1.702081309219e-02 8.161246374771e-07 0.000000000000e+00 -1.731578861633e-02 8.082912381000e-07 0.000000000000e+00 -1.796814779135e-02 8.115968769394e-07 0.000000000000e+00 -1.761077541574e-02 8.194691648431e-07 0.000000000000e+00 -1.805774224484e-02 8.179576849440e-07 0.000000000000e+00 -1.867803019600e-02 8.367301008514e-07 0.000000000000e+00 -1.847264147642e-02 8.071758356050e-07 0.000000000000e+00 -1.891548427164e-02 8.032235122580e-07 0.000000000000e+00 -1.866154477647e-02 8.000102001860e-07 0.000000000000e+00 -1.931388927945e-02 8.099613397790e-07 0.000000000000e+00 -1.836656472813e-02 8.145253713101e-07 0.000000000000e+00 -1.876497966470e-02 8.257446625985e-07 0.000000000000e+00 -1.807159148312e-02 8.483936273910e-07 0.000000000000e+00 -1.777662589395e-02 8.647816423779e-07 0.000000000000e+00 -1.783675958720e-02 8.816119907701e-07 0.000000000000e+00 -1.789689438502e-02 8.471733807128e-07 0.000000000000e+00 -1.853013921455e-02 8.209929629368e-07 0.000000000000e+00 -2.001439547033e-02 8.333240936260e-07 0.000000000000e+00 -1.922351716499e-02 8.453998293036e-07 0.000000000000e+00 -1.938114586532e-02 8.206987653770e-07 0.000000000000e+00 -1.916339261667e-02 8.063513969077e-07 0.000000000000e+00 -1.945836354491e-02 8.004745030839e-07 0.000000000000e+00 -2.011069880044e-02 7.984818211658e-07 0.000000000000e+00 -1.971229417999e-02 7.974191198827e-07 0.000000000000e+00 -1.996622811300e-02 7.949721263296e-07 0.000000000000e+00 -2.061856219775e-02 8.035298289883e-07 0.000000000000e+00 -2.022016373913e-02 8.114034869858e-07 0.000000000000e+00 -2.063504635945e-02 8.090494519759e-07 0.000000000000e+00 -2.125765514045e-02 8.228202418080e-07 0.000000000000e+00 -2.102020585402e-02 7.981665054056e-07 0.000000000000e+00 -2.152482415252e-02 7.922362930881e-07 0.000000000000e+00 -2.131193650042e-02 7.894145924512e-07 0.000000000000e+00 -2.196426318747e-02 7.913286411338e-07 0.000000000000e+00 -2.105800502467e-02 7.910999304799e-07 0.000000000000e+00 -2.149744770927e-02 7.954240559274e-07 0.000000000000e+00 -2.080407495374e-02 8.042734355192e-07 0.000000000000e+00 -2.055014724456e-02 8.123478797800e-07 0.000000000000e+00 -2.070776862061e-02 8.218163575641e-07 0.000000000000e+00 -2.086539110678e-02 8.051486056822e-07 0.000000000000e+00 -2.140113944827e-02 7.925331490198e-07 0.000000000000e+00 -2.285792486834e-02 7.989764699244e-07 0.000000000000e+00 -2.209450807306e-02 8.050531147242e-07 0.000000000000e+00 -2.232217710024e-02 7.931584158367e-07 0.000000000000e+00 -2.193689019799e-02 7.871581799501e-07 0.000000000000e+00 -2.219081749543e-02 7.836047851362e-07 0.000000000000e+00 -2.284314092996e-02 7.849559605263e-07 0.000000000000e+00 -2.240370206533e-02 7.863040660895e-07 0.000000000000e+00 -2.261658718170e-02 7.829029883573e-07 0.000000000000e+00 -2.326890891787e-02 7.909752695754e-07 0.000000000000e+00 -2.282947208583e-02 7.953065306540e-07 0.000000000000e+00 -2.321462498081e-02 7.912436988108e-07 0.000000000000e+00 -2.399747732490e-02 8.018357288559e-07 0.000000000000e+00 -2.373030912027e-02 7.824047031164e-07 0.000000000000e+00 -2.413411149433e-02 7.789798947647e-07 0.000000000000e+00 -2.396227231915e-02 7.750214465120e-07 0.000000000000e+00 -2.461459044237e-02 7.781394884743e-07 0.000000000000e+00 -2.374938916087e-02 7.760590092150e-07 0.000000000000e+00 -2.422986925412e-02 7.798570827720e-07 0.000000000000e+00 -2.353650605514e-02 7.842235351954e-07 0.000000000000e+00 -2.332362350195e-02 7.876390722117e-07 0.000000000000e+00 -2.355128946172e-02 7.922526498036e-07 0.000000000000e+00 -2.377895592702e-02 7.830257072958e-07 0.000000000000e+00 -2.424465240082e-02 7.739659202594e-07 0.000000000000e+00 -2.565118539466e-02 7.785878592019e-07 0.000000000000e+00 -2.493801386643e-02 7.819874856358e-07 0.000000000000e+00 -2.518549021844e-02 7.759736254738e-07 0.000000000000e+00 -2.471034926552e-02 7.721619995704e-07 0.000000000000e+00 -2.492323079570e-02 7.683862691190e-07 0.000000000000e+00 -2.557554751893e-02 7.705566895215e-07 0.000000000000e+00 -2.509506906023e-02 7.708299718250e-07 0.000000000000e+00 -2.526690720876e-02 7.664381692306e-07 0.000000000000e+00 -2.591922281717e-02 7.727850381311e-07 0.000000000000e+00 -2.543874488321e-02 7.733960678391e-07 0.000000000000e+00 -2.595442516466e-02 7.654650063091e-07 0.000000000000e+00 -2.674333908586e-02 7.716724327711e-07 0.000000000000e+00 -2.660670347856e-02 7.624714847977e-07 0.000000000000e+00 -2.674337396158e-02 7.594039142581e-07 0.000000000000e+00 -2.739565213026e-02 7.557057534611e-07 0.000000000000e+00 -2.804792857986e-02 7.533089462328e-07 0.000000000000e+00 -2.804796450195e-02 7.471848997246e-07 0.000000000000e+00 -2.870027628299e-02 7.517229865972e-07 0.000000000000e+00 -2.804799982019e-02 7.418168414570e-07 0.000000000000e+00 -2.925607256031e-02 7.427799507687e-07 0.000000000000e+00 -2.925603647783e-02 7.402741232031e-07 0.000000000000e+00 -2.940020746658e-02 7.437679012605e-07 0.000000000000e+00 -2.898322850053e-02 7.471049376327e-07 0.000000000000e+00 -2.856951965354e-02 7.520400737052e-07 0.000000000000e+00 -2.791720734940e-02 7.532944149234e-07 0.000000000000e+00 -2.778641444470e-02 7.568722876991e-07 0.000000000000e+00 -2.726489439625e-02 7.615840431460e-07 0.000000000000e+00 -2.661258069771e-02 7.622286219989e-07 0.000000000000e+00 -2.644074370434e-02 7.599864500695e-07 0.000000000000e+00 -2.696226434598e-02 7.642483919126e-07 0.000000000000e+00 -2.626890647063e-02 7.677455615335e-07 0.000000000000e+00 -2.609706925094e-02 7.696765841274e-07 0.000000000000e+00 -2.634454436829e-02 7.725361828128e-07 0.000000000000e+00 -2.659201970232e-02 7.653969387944e-07 0.000000000000e+00 -2.703790232710e-02 7.567371596019e-07 0.000000000000e+00 -2.843674147055e-02 7.611103613602e-07 0.000000000000e+00 -2.773125939374e-02 7.636797173321e-07 0.000000000000e+00 -2.799085990230e-02 7.593063678887e-07 0.000000000000e+00 -2.748378482727e-02 7.556074723352e-07 0.000000000000e+00 -2.765562128818e-02 7.513915768081e-07 0.000000000000e+00 -2.830793424962e-02 7.508316248500e-07 0.000000000000e+00 -2.859085097388e-02 7.506013180437e-07 0.000000000000e+00 -2.887049704086e-02 7.463287544570e-07 0.000000000000e+00 -2.928420626144e-02 7.523936400782e-07 0.000000000000e+00 -2.913009705454e-02 7.549113297454e-07 0.000000000000e+00 -2.938969713161e-02 7.480195613550e-07 0.000000000000e+00 -2.982345204132e-02 7.371185749284e-07 0.000000000000e+00 -3.067091517194e-02 7.325909683180e-07 0.000000000000e+00 -3.108789391265e-02 7.330447505285e-07 0.000000000000e+00 -3.080824830720e-02 7.196308330764e-07 0.000000000000e+00 -3.205591247391e-02 7.251943388091e-07 0.000000000000e+00 -3.136255942462e-02 7.234752457072e-07 0.000000000000e+00 -3.191858008046e-02 7.344754526898e-07 0.000000000000e+00 -3.192799429746e-02 7.370073170829e-07 0.000000000000e+00 -3.221207410636e-02 7.299880334285e-07 0.000000000000e+00 -3.262134754456e-02 7.231755960791e-07 0.000000000000e+00 -3.303062074509e-02 7.254859358237e-07 0.000000000000e+00 -3.331470049078e-02 7.205545901014e-07 0.000000000000e+00 -3.401758082685e-02 7.278389889333e-07 0.000000000000e+00 -3.360830784538e-02 7.023246355915e-07 0.000000000000e+00 -3.674532955061e-02 7.069757045571e-07 0.000000000000e+00 -3.609763761723e-02 7.097489448590e-07 0.000000000000e+00 -3.634558484065e-02 6.853680892415e-07 0.000000000000e+00 -3.941397908368e-02 6.889176513915e-07 0.000000000000e+00 -3.882538471919e-02 6.931600122117e-07 0.000000000000e+00 -3.896857472727e-02 6.705633134229e-07 0.000000000000e+00 -4.204420193846e-02 6.724791465994e-07 0.000000000000e+00 -4.149403344181e-02 6.796579976576e-07 0.000000000000e+00 -4.149404056671e-02 6.165301498555e-07 0.000000000000e+00 -4.536680713706e-02 6.150964823903e-07 0.000000000000e+00 -4.495645915947e-02 6.246461307714e-07 0.000000000000e+00 -4.482551953138e-02 6.306987568860e-07 0.000000000000e+00 -4.285678208547e-02 6.342850111404e-07 0.000000000000e+00 -4.238585141050e-02 6.368801648770e-07 0.000000000000e+00 -4.254445619350e-02 6.506280547919e-07 0.000000000000e+00 -4.028617422178e-02 6.581509441602e-07 0.000000000000e+00 -3.974165342620e-02 6.584676439870e-07 0.000000000000e+00 -4.012921983743e-02 6.662990880019e-07 0.000000000000e+00 -3.997226517746e-02 6.589962900259e-07 0.000000000000e+00 -4.051678619476e-02 6.435916747805e-07 0.000000000000e+00 -4.456363947500e-02 6.480987727347e-07 0.000000000000e+00 -4.383119138658e-02 6.498149061070e-07 0.000000000000e+00 -4.424153900218e-02 6.465824637087e-07 0.000000000000e+00 -4.342084371316e-02 6.526880743806e-07 0.000000000000e+00 -4.309874328383e-02 6.403799172687e-07 0.000000000000e+00 -4.374294407067e-02 6.452694633029e-07 0.000000000000e+00 -4.301049598384e-02 6.423408460273e-07 0.000000000000e+00 -4.286166558557e-02 6.484530120641e-07 0.000000000000e+00 -4.253956527409e-02 6.516664385204e-07 0.000000000000e+00 -4.206863455854e-02 6.544695077922e-07 0.000000000000e+00 -4.221746488745e-02 6.489482703060e-07 0.000000000000e+00 -4.191980417505e-02 6.549085213300e-07 0.000000000000e+00 -4.159770383553e-02 6.622820444872e-07 0.000000000000e+00 -4.105318281209e-02 6.695043562388e-07 0.000000000000e+00 -4.050866168527e-02 6.649210009233e-07 0.000000000000e+00 -4.120201307188e-02 6.597311497404e-07 0.000000000000e+00 -4.090435250025e-02 6.515303302983e-07 0.000000000000e+00 -4.106130710073e-02 6.463882288462e-07 0.000000000000e+00 -4.176119952296e-02 6.456495979337e-07 0.000000000000e+00 -4.137363310826e-02 6.429624515104e-07 0.000000000000e+00 -4.223213022333e-02 6.395658859314e-07 0.000000000000e+00 -4.270306091821e-02 6.361995204237e-07 0.000000000000e+00 -4.317399160914e-02 6.312542161413e-07 0.000000000000e+00 -4.387388399493e-02 6.282963951486e-07 0.000000000000e+00 -4.371527925149e-02 6.325950549727e-07 0.000000000000e+00 -4.428423184268e-02 6.341457851320e-07 0.000000000000e+00 -4.469457963459e-02 6.359044363317e-07 0.000000000000e+00 -4.510492736846e-02 6.316024952281e-07 0.000000000000e+00 -4.580481975599e-02 6.216683028723e-07 0.000000000000e+00 -4.593575976127e-02 5.973709878157e-07 0.000000000000e+00 -4.819893218971e-02 6.021962185664e-07 0.000000000000e+00 -4.746648418584e-02 6.125598230446e-07 0.000000000000e+00 -4.736810015809e-02 6.507720512906e-07 0.000000000000e+00 -4.584980364932e-02 6.603915518118e-07 0.000000000000e+00 -4.599317181108e-02 6.469971743421e-07 0.000000000000e+00 -4.658225169902e-02 6.331355368106e-07 0.000000000000e+00 -4.717133125960e-02 6.433333687776e-07 0.000000000000e+00 -4.731469973009e-02 6.365668832915e-07 0.000000000000e+00 -4.820851759594e-02 6.505379236839e-07 0.000000000000e+00 -4.761943777635e-02 6.222330054600e-07 0.000000000000e+00 -5.110641999494e-02 6.265664910393e-07 0.000000000000e+00 -5.040586142499e-02 6.339102567898e-07 0.000000000000e+00 -5.067871010750e-02 6.119675237603e-07 0.000000000000e+00 -5.392266598088e-02 6.138801026650e-07 0.000000000000e+00 -5.330376317955e-02 6.230638608394e-07 0.000000000000e+00 -5.346306689149e-02 6.070184901108e-07 0.000000000000e+00 -5.669317830626e-02 6.057528251979e-07 0.000000000000e+00 -5.612000782842e-02 6.191833634100e-07 0.000000000000e+00 -5.612003467783e-02 6.056691569056e-07 0.000000000000e+00 -6.007463082224e-02 6.246541705715e-07 0.000000000000e+00 -6.020933788688e-02 6.057316230550e-07 0.000000000000e+00 -6.072398408568e-02 5.856071349126e-07 0.000000000000e+00 -6.123862933851e-02 6.060644315792e-07 0.000000000000e+00 -6.137333691915e-02 6.019650291278e-07 0.000000000000e+00 -6.216935179883e-02 6.222598494950e-07 0.000000000000e+00 -6.165470626516e-02 6.046463385871e-07 0.000000000000e+00 -6.475921772389e-02 6.053747979267e-07 0.000000000000e+00 -6.411740422378e-02 6.230406575671e-07 0.000000000000e+00 -6.439123639830e-02 6.137853314301e-07 0.000000000000e+00 -6.731567858947e-02 6.118864192171e-07 0.000000000000e+00 -6.670725421984e-02 6.349623906123e-07 0.000000000000e+00 -6.694016727186e-02 6.673345557861e-07 0.000000000000e+00 -6.987956913240e-02 6.408072715570e-07 0.000000000000e+00 -6.926364989672e-02 6.709434815357e-07 0.000000000000e+00 -6.946311152342e-02 6.704278813379e-07 0.000000000000e+00 -7.246800705291e-02 6.687496481347e-07 0.000000000000e+00 -7.182769176376e-02 6.709613308230e-07 0.000000000000e+00 -7.201813347986e-02 6.798936926625e-07 0.000000000000e+00 -7.508005949446e-02 6.789488805856e-07 0.000000000000e+00 -7.441605043602e-02 6.811376018540e-07 0.000000000000e+00 -7.462115679016e-02 6.470235427296e-07 0.000000000000e+00 -7.769230048114e-02 6.620481273117e-07 0.000000000000e+00 -7.702808003492e-02 6.551397052302e-07 0.000000000000e+00 -7.724807428309e-02 5.752654943783e-07 0.000000000000e+00 -8.026460322959e-02 5.911295684209e-07 0.000000000000e+00 -7.964037876098e-02 5.882639649013e-07 0.000000000000e+00 -7.983523843448e-02 5.273821919651e-07 0.000000000000e+00 -8.278120899156e-02 5.382445345576e-07 0.000000000000e+00 -8.221272769566e-02 5.340082332588e-07 0.000000000000e+00 -8.232669145756e-02 4.583760564639e-07 0.000000000000e+00 -8.526459024659e-02 4.764450504133e-07 0.000000000000e+00 -8.472934888921e-02 4.708092543170e-07 0.000000000000e+00 -8.472917269608e-02 4.381132859381e-07 0.000000000000e+00 -8.591356651951e-02 4.422006726758e-07 0.000000000000e+00 -8.591374136685e-02 4.251956645879e-07 0.000000000000e+00 -8.694065882733e-02 4.494814476061e-07 0.000000000000e+00 -8.629165427558e-02 4.294674070440e-07 0.000000000000e+00 -8.659834694797e-02 3.864352677396e-07 0.000000000000e+00 -8.820191068673e-02 3.793078488383e-07 0.000000000000e+00 -8.850969604857e-02 3.777501515267e-07 0.000000000000e+00 -8.885090603586e-02 3.985572929381e-07 0.000000000000e+00 -8.755402664462e-02 3.959947865738e-07 0.000000000000e+00 -8.789523423374e-02 4.149351735817e-07 0.000000000000e+00 -8.690503244601e-02 4.041434298482e-07 0.000000000000e+00 -8.721171301010e-02 4.358428263080e-07 0.000000000000e+00 -8.625604253058e-02 4.603223474987e-07 0.000000000000e+00 -8.560706037587e-02 4.855493854162e-07 0.000000000000e+00 -8.495920030539e-02 4.852416036280e-07 0.000000000000e+00 -8.530148972737e-02 5.429977488487e-07 0.000000000000e+00 -8.434809411802e-02 5.494700104956e-07 0.000000000000e+00 -8.369874408339e-02 5.311308592280e-07 0.000000000000e+00 -8.400427372416e-02 5.239687606730e-07 0.000000000000e+00 -8.366044815621e-02 5.077466341114e-07 0.000000000000e+00 -8.430982055097e-02 4.864183229673e-07 0.000000000000e+00 -8.461537708880e-02 4.959542555307e-07 0.000000000000e+00 -8.407996483752e-02 5.130328614647e-07 0.000000000000e+00 -8.343058547371e-02 5.053083459724e-07 0.000000000000e+00 -8.354455255199e-02 5.212358958063e-07 0.000000000000e+00 -8.331662047613e-02 5.338672473890e-07 0.000000000000e+00 -8.301107824703e-02 5.393115365744e-07 0.000000000000e+00 -8.236323688414e-02 5.402323525339e-07 0.000000000000e+00 -8.270707584808e-02 5.280664321049e-07 0.000000000000e+00 -8.175523298597e-02 5.227954709752e-07 0.000000000000e+00 -8.110584247904e-02 5.365318385590e-07 0.000000000000e+00 -8.140985261602e-02 5.486485321476e-07 0.000000000000e+00 -8.106448159294e-02 5.432206262848e-07 0.000000000000e+00 -8.171386134572e-02 5.422248511788e-07 0.000000000000e+00 -8.201787195318e-02 5.496065468289e-07 0.000000000000e+00 -8.156335252981e-02 5.614985821059e-07 0.000000000000e+00 -8.091397739765e-02 5.590646541734e-07 0.000000000000e+00 -8.110883553891e-02 5.617068702245e-07 0.000000000000e+00 -8.071911909102e-02 5.584377929072e-07 0.000000000000e+00 -8.041509938900e-02 5.745711029377e-07 0.000000000000e+00 -7.976724893301e-02 5.505099071031e-07 0.000000000000e+00 -8.011260346135e-02 5.741341567515e-07 0.000000000000e+00 -7.916223100746e-02 6.174487727099e-07 0.000000000000e+00 -7.851287147395e-02 6.034715302188e-07 0.000000000000e+00 -7.881537463683e-02 6.229513279882e-07 0.000000000000e+00 -7.846851463093e-02 5.971364032227e-07 0.000000000000e+00 -7.911787546130e-02 5.936043083173e-07 0.000000000000e+00 -7.942037054524e-02 6.095931052377e-07 0.000000000000e+00 -7.899101233137e-02 6.289214902358e-07 0.000000000000e+00 -7.834165268518e-02 6.224323262593e-07 0.000000000000e+00 -7.856165604087e-02 6.359023835897e-07 0.000000000000e+00 -7.812164956005e-02 6.464862813627e-07 0.000000000000e+00 -7.781916827226e-02 6.629472824475e-07 0.000000000000e+00 -7.717136333506e-02 6.564225474794e-07 0.000000000000e+00 -7.751822633056e-02 6.492878235668e-07 0.000000000000e+00 -7.656952360377e-02 6.377583138306e-07 0.000000000000e+00 -7.592020218054e-02 6.633451541349e-07 0.000000000000e+00 -7.622111386042e-02 6.720821230585e-07 0.000000000000e+00 -7.587270353610e-02 6.709754529228e-07 0.000000000000e+00 -7.652203352030e-02 6.676675999577e-07 0.000000000000e+00 -7.682296376527e-02 6.722969463065e-07 0.000000000000e+00 -7.637873871258e-02 6.780036883525e-07 0.000000000000e+00 -7.572939925114e-02 6.752599255429e-07 0.000000000000e+00 -7.593450982971e-02 6.773871891220e-07 0.000000000000e+00 -7.552429191753e-02 6.689042965434e-07 0.000000000000e+00 -7.522337019294e-02 6.637671805812e-07 0.000000000000e+00 -7.457556238318e-02 6.487738735813e-07 0.000000000000e+00 -7.492398168536e-02 6.085878745901e-07 0.000000000000e+00 -7.397677766179e-02 6.018863931546e-07 0.000000000000e+00 -7.332742811467e-02 6.341626614135e-07 0.000000000000e+00 -7.362682504502e-02 6.531954585903e-07 0.000000000000e+00 -7.327687199681e-02 6.582207640148e-07 0.000000000000e+00 -7.392621957715e-02 6.731107715422e-07 0.000000000000e+00 -7.422561283768e-02 6.764124742514e-07 0.000000000000e+00 -7.376670607559e-02 6.732786005463e-07 0.000000000000e+00 -7.311735843257e-02 6.776275431911e-07 0.000000000000e+00 -7.330779719176e-02 6.658229226543e-07 0.000000000000e+00 -7.292691882115e-02 6.490740948063e-07 0.000000000000e+00 -7.262751965900e-02 6.456237818750e-07 0.000000000000e+00 -7.197969258222e-02 6.230088761351e-07 0.000000000000e+00 -7.232964914079e-02 5.555287539870e-07 0.000000000000e+00 -6.829475592424e-02 5.739932277764e-07 0.000000000000e+00 -6.801342654615e-02 5.830391451360e-07 0.000000000000e+00 -6.866276188054e-02 5.365684571524e-07 0.000000000000e+00 -6.857608801658e-02 5.297425896405e-07 0.000000000000e+00 -6.792674409155e-02 5.168482556153e-07 0.000000000000e+00 -6.892757253107e-02 5.472093109590e-07 0.000000000000e+00 -6.929558544647e-02 5.811408956506e-07 0.000000000000e+00 -6.966359485407e-02 5.599569837588e-07 0.000000000000e+00 -7.001508724814e-02 5.358628526478e-07 0.000000000000e+00 -7.036657694885e-02 5.724797528003e-07 0.000000000000e+00 -7.073459410325e-02 5.820039776530e-07 0.000000000000e+00 -7.138395133151e-02 6.089252455046e-07 0.000000000000e+00 -7.103245998407e-02 6.337327919581e-07 0.000000000000e+00 -7.068096510979e-02 6.414972490948e-07 0.000000000000e+00 -7.133033037870e-02 6.624680944957e-07 0.000000000000e+00 -7.162820598812e-02 6.697196795828e-07 0.000000000000e+00 -7.117832947563e-02 6.739845210714e-07 0.000000000000e+00 -7.052895516559e-02 6.680932363733e-07 0.000000000000e+00 -7.072844977297e-02 6.568000237367e-07 0.000000000000e+00 -7.032946556926e-02 6.193159251431e-07 0.000000000000e+00 -7.003160311111e-02 5.985351571196e-07 0.000000000000e+00 -6.931210066784e-02 6.136973298812e-07 0.000000000000e+00 -6.903075856148e-02 6.207877682754e-07 0.000000000000e+00 -6.861433384584e-02 6.164567235639e-07 0.000000000000e+00 -6.796501235436e-02 6.452506515810e-07 0.000000000000e+00 -6.819792181306e-02 5.952700407386e-07 0.000000000000e+00 -6.773210218083e-02 5.694529988156e-07 0.000000000000e+00 -6.736408917253e-02 5.669641233186e-07 0.000000000000e+00 -6.664459720206e-02 5.453794680942e-07 0.000000000000e+00 -6.692592226686e-02 5.219902987001e-07 0.000000000000e+00 -6.576825435853e-02 5.221591129955e-07 0.000000000000e+00 -6.511890668445e-02 5.430973908977e-07 0.000000000000e+00 -6.555708077831e-02 5.651143807633e-07 0.000000000000e+00 -6.534590724243e-02 5.657797114711e-07 0.000000000000e+00 -6.599525332833e-02 5.909192191809e-07 0.000000000000e+00 -6.643342419884e-02 6.091548229808e-07 0.000000000000e+00 -6.605791094125e-02 6.067238683541e-07 0.000000000000e+00 -6.540856522515e-02 6.268618932129e-07 0.000000000000e+00 -6.568239599231e-02 5.880198675269e-07 0.000000000000e+00 -6.513473325060e-02 5.647964488252e-07 0.000000000000e+00 -6.469655944406e-02 5.647613870028e-07 0.000000000000e+00 -6.397705823643e-02 5.436513461456e-07 0.000000000000e+00 -6.418823224172e-02 5.259672727066e-07 0.000000000000e+00 -6.296040053790e-02 5.277088022360e-07 0.000000000000e+00 -6.231104881900e-02 5.455602339326e-07 0.000000000000e+00 -6.281937890476e-02 5.654271079485e-07 0.000000000000e+00 -6.267835672704e-02 5.649836625004e-07 0.000000000000e+00 -6.332770791158e-02 5.861788314471e-07 0.000000000000e+00 -6.383603561253e-02 6.039045053737e-07 0.000000000000e+00 -6.346805425665e-02 6.027752290831e-07 0.000000000000e+00 -6.281870339592e-02 6.208144595057e-07 0.000000000000e+00 -6.310007198905e-02 5.853893013290e-07 0.000000000000e+00 -6.253733386009e-02 5.660815118577e-07 0.000000000000e+00 -6.202900483090e-02 5.670416691345e-07 0.000000000000e+00 -6.130949994897e-02 5.483950967155e-07 0.000000000000e+00 -6.145052231378e-02 5.681111483716e-07 0.000000000000e+00 -6.066014690421e-02 5.519988109461e-07 0.000000000000e+00 -6.008166344856e-02 5.693645900619e-07 0.000000000000e+00 -6.001079344028e-02 5.347601219942e-07 0.000000000000e+00 -6.015253293148e-02 5.372032702674e-07 0.000000000000e+00 -5.950317914351e-02 5.397806551043e-07 0.000000000000e+00 -5.885382503733e-02 5.560592225616e-07 0.000000000000e+00 -5.878295550883e-02 5.741805405541e-07 0.000000000000e+00 -5.806273109365e-02 5.724044050775e-07 0.000000000000e+00 -5.871208548959e-02 5.707967750516e-07 0.000000000000e+00 -5.936143961927e-02 5.887167586014e-07 0.000000000000e+00 -5.864121494214e-02 5.867387460092e-07 0.000000000000e+00 -5.993992284942e-02 6.058626134330e-07 0.000000000000e+00 -5.942527719217e-02 6.039710494302e-07 0.000000000000e+00 -5.864124186497e-02 6.214850204183e-07 0.000000000000e+00 -5.877594953072e-02 6.047758594310e-07 0.000000000000e+00 -5.799188757278e-02 6.199826193650e-07 0.000000000000e+00 -5.734255965106e-02 6.057959841262e-07 0.000000000000e+00 -5.734253304417e-02 5.914830232231e-07 0.000000000000e+00 -5.734250596969e-02 5.761189916833e-07 0.000000000000e+00 -5.741337646660e-02 5.784474362709e-07 0.000000000000e+00 -5.669386901602e-02 5.609678169661e-07 0.000000000000e+00 -5.741409388136e-02 5.801421309054e-07 0.000000000000e+00 -5.309746074612e-02 5.961417784786e-07 0.000000000000e+00 -5.233174005299e-02 5.927820658375e-07 0.000000000000e+00 -5.306418778319e-02 5.635138991012e-07 0.000000000000e+00 -5.386318099597e-02 5.675173350218e-07 0.000000000000e+00 -5.313073335565e-02 5.464714102535e-07 0.000000000000e+00 -5.459634511466e-02 5.598030434250e-07 0.000000000000e+00 -5.456307287901e-02 5.732089227706e-07 0.000000000000e+00 -5.452980028124e-02 5.562089782966e-07 0.000000000000e+00 -5.526296464484e-02 5.386105432875e-07 0.000000000000e+00 -5.599612847208e-02 5.527359736272e-07 0.000000000000e+00 -5.596285627128e-02 5.492366352640e-07 0.000000000000e+00 -5.669530336154e-02 5.668257721901e-07 0.000000000000e+00 -5.596213931982e-02 5.837379482988e-07 0.000000000000e+00 -5.522897470585e-02 5.810033543602e-07 0.000000000000e+00 -5.596142195340e-02 5.952055221320e-07 0.000000000000e+00 -5.596070414892e-02 6.076171607420e-07 0.000000000000e+00 -5.538756070848e-02 6.096930070167e-07 0.000000000000e+00 -5.465511341763e-02 6.195479885290e-07 0.000000000000e+00 -5.481441698211e-02 5.999372152628e-07 0.000000000000e+00 -5.449580957482e-02 5.866424140090e-07 0.000000000000e+00 -5.449652730210e-02 5.895688837172e-07 0.000000000000e+00 -5.379663542234e-02 6.053940744547e-07 0.000000000000e+00 -5.303091445562e-02 6.164980339002e-07 0.000000000000e+00 -5.257131553289e-02 6.192852468452e-07 0.000000000000e+00 -5.183886779957e-02 6.272617627371e-07 0.000000000000e+00 -5.211171640744e-02 6.115010763362e-07 0.000000000000e+00 -5.156601895868e-02 5.996416976880e-07 0.000000000000e+00 -5.159929224815e-02 6.031112602628e-07 0.000000000000e+00 -5.089940005107e-02 5.875805738244e-07 0.000000000000e+00 -5.166512086665e-02 5.796368913967e-07 0.000000000000e+00 -5.103105696776e-02 5.840768799101e-07 0.000000000000e+00 -5.029860906643e-02 5.954852642732e-07 0.000000000000e+00 -5.023278075780e-02 6.107467875129e-07 0.000000000000e+00 -4.943450418782e-02 6.068677056880e-07 0.000000000000e+00 -5.016695213901e-02 6.181966905717e-07 0.000000000000e+00 -5.010112320634e-02 6.297630593331e-07 0.000000000000e+00 -4.967341351916e-02 6.330992585040e-07 0.000000000000e+00 -4.894096557378e-02 6.410001709675e-07 0.000000000000e+00 -4.924570360586e-02 6.254248690039e-07 0.000000000000e+00 -4.863622728737e-02 6.147429806118e-07 0.000000000000e+00 -4.870205620554e-02 6.186667553804e-07 0.000000000000e+00 -4.800216387314e-02 6.038219494724e-07 0.000000000000e+00 -4.880044050234e-02 6.228778753288e-07 0.000000000000e+00 -4.726971584866e-02 6.271911426093e-07 0.000000000000e+00 -4.653726780859e-02 6.412798051265e-07 0.000000000000e+00 -4.570643515898e-02 6.546515431823e-07 0.000000000000e+00 -4.511735558302e-02 6.578824043354e-07 0.000000000000e+00 -4.424154633180e-02 6.667759334155e-07 0.000000000000e+00 -4.438491457312e-02 6.620245898377e-07 0.000000000000e+00 -4.350909822504e-02 6.738575750594e-07 0.000000000000e+00 -4.277665720607e-02 6.662534104025e-07 0.000000000000e+00 -4.277665009591e-02 6.587008356927e-07 0.000000000000e+00 -4.277664278390e-02 6.573552924527e-07 0.000000000000e+00 -4.236629516247e-02 6.603941459687e-07 0.000000000000e+00 -4.189536442648e-02 6.676451425519e-07 0.000000000000e+00 -4.135084328053e-02 6.767203733473e-07 0.000000000000e+00 -4.080068203456e-02 6.810184369337e-07 0.000000000000e+00 -4.010733058529e-02 6.856032048739e-07 0.000000000000e+00 -4.025052061019e-02 6.765842097444e-07 0.000000000000e+00 -3.996414045088e-02 6.741404020956e-07 0.000000000000e+00 -3.981531025874e-02 6.734455659081e-07 0.000000000000e+00 -3.942774404245e-02 6.783304687726e-07 0.000000000000e+00 -3.872785142713e-02 6.709510112468e-07 0.000000000000e+00 -3.888480631324e-02 6.746383909680e-07 0.000000000000e+00 -3.764197575502e-02 6.801624379130e-07 0.000000000000e+00 -3.694862418611e-02 6.813380963587e-07 0.000000000000e+00 -3.749156213338e-02 6.881153244955e-07 0.000000000000e+00 -3.734114823160e-02 6.832075535613e-07 0.000000000000e+00 -3.803449987028e-02 6.857175597919e-07 0.000000000000e+00 -3.857743741817e-02 6.933543634054e-07 0.000000000000e+00 -3.813203309120e-02 6.978256017522e-07 0.000000000000e+00 -3.743868137380e-02 7.008938232464e-07 0.000000000000e+00 -3.768662858975e-02 6.949973167197e-07 0.000000000000e+00 -3.719073407872e-02 6.930482047449e-07 0.000000000000e+00 -3.664779649511e-02 6.980460248082e-07 0.000000000000e+00 -3.594790351177e-02 6.918421300621e-07 0.000000000000e+00 -3.609831759771e-02 6.970535844640e-07 0.000000000000e+00 -3.484894544488e-02 7.026630406342e-07 0.000000000000e+00 -3.415559337270e-02 7.024092650547e-07 0.000000000000e+00 -3.470507255486e-02 7.079722962478e-07 0.000000000000e+00 -3.456119936813e-02 7.030073867025e-07 0.000000000000e+00 -3.525455152067e-02 7.043715244477e-07 0.000000000000e+00 -3.580403030588e-02 7.114943308514e-07 0.000000000000e+00 -3.540428553086e-02 7.160233417512e-07 0.000000000000e+00 -3.471093327645e-02 7.186337735661e-07 0.000000000000e+00 -3.500454055159e-02 7.137840972504e-07 0.000000000000e+00 -3.441732593355e-02 7.129323174503e-07 0.000000000000e+00 -3.386784702660e-02 7.179251969354e-07 0.000000000000e+00 -3.316795332612e-02 7.129778132587e-07 0.000000000000e+00 -3.331182680436e-02 7.228491558037e-07 0.000000000000e+00 -3.247460050387e-02 7.277413252712e-07 0.000000000000e+00 -3.178124738234e-02 7.324844171942e-07 0.000000000000e+00 -3.164391446004e-02 7.389408317669e-07 0.000000000000e+00 -3.123464070361e-02 7.436162536962e-07 0.000000000000e+00 -3.051680650695e-02 7.459783468117e-07 0.000000000000e+00 -3.080088651701e-02 7.416456636631e-07 0.000000000000e+00 -3.025720671255e-02 7.417543468297e-07 0.000000000000e+00 -2.997756096913e-02 7.421395732403e-07 0.000000000000e+00 -2.969791518465e-02 7.379836432989e-07 0.000000000000e+00 -3.011162380271e-02 7.428293607838e-07 0.000000000000e+00 -2.941826935311e-02 7.401188828377e-07 0.000000000000e+00 -2.954906160815e-02 7.348471251479e-07 0.000000000000e+00 -3.024895693594e-02 7.337887277062e-07 0.000000000000e+00 -3.052860265100e-02 7.295374268526e-07 0.000000000000e+00 -3.094558119002e-02 7.265255628303e-07 0.000000000000e+00 -3.108291372366e-02 7.282237524192e-07 0.000000000000e+00 -3.079999732352e-02 7.223441759908e-07 0.000000000000e+00 -3.135575662968e-02 7.168641210989e-07 0.000000000000e+00 -3.195153806394e-02 7.171174767276e-07 0.000000000000e+00 -3.180740277969e-02 7.160775457215e-07 0.000000000000e+00 -3.219978562345e-02 7.139872121912e-07 0.000000000000e+00 -3.275580635787e-02 7.083279994253e-07 0.000000000000e+00 -3.345569997778e-02 7.039133664578e-07 0.000000000000e+00 -3.359957278821e-02 6.975574160927e-07 0.000000000000e+00 -3.405121849645e-02 6.912937770779e-07 0.000000000000e+00 -3.470807383667e-02 6.910922425178e-07 0.000000000000e+00 -3.445982606758e-02 6.917981504917e-07 0.000000000000e+00 -3.499935912371e-02 6.914023939087e-07 0.000000000000e+00 -3.554883848805e-02 6.857699461258e-07 0.000000000000e+00 -3.624873139456e-02 6.797882080662e-07 0.000000000000e+00 -3.639914486779e-02 6.723063094535e-07 0.000000000000e+00 -3.680775227512e-02 6.656436075951e-07 0.000000000000e+00 -3.751847064716e-02 6.641620045474e-07 0.000000000000e+00 -3.722718511077e-02 6.679289910821e-07 0.000000000000e+00 -3.779893019661e-02 6.690989763893e-07 0.000000000000e+00 -3.834186837297e-02 6.636013799700e-07 0.000000000000e+00 -3.904176092603e-02 6.562563020957e-07 0.000000000000e+00 -3.919871524536e-02 6.472274510074e-07 0.000000000000e+00 -3.961814810271e-02 6.409519023714e-07 0.000000000000e+00 -4.033999394344e-02 6.376692814259e-07 0.000000000000e+00 -4.005953410738e-02 6.448019030093e-07 0.000000000000e+00 -4.059850011259e-02 6.451192390569e-07 0.000000000000e+00 -4.098606663881e-02 6.396708360321e-07 0.000000000000e+00 -4.168595903296e-02 6.335905961530e-07 0.000000000000e+00 -4.199828487547e-02 6.233058694868e-07 0.000000000000e+00 -4.243967101144e-02 6.174977982315e-07 0.000000000000e+00 -4.315010229649e-02 6.126800939042e-07 0.000000000000e+00 -4.289159583888e-02 6.226444518805e-07 0.000000000000e+00 -4.339806958590e-02 6.254261758522e-07 0.000000000000e+00 -4.355667444864e-02 6.202249260499e-07 0.000000000000e+00 -4.425656680604e-02 6.119829324669e-07 0.000000000000e+00 -4.479785427468e-02 6.007198785394e-07 0.000000000000e+00 -4.524977926659e-02 5.947837607779e-07 0.000000000000e+00 -4.597154147567e-02 5.886912791504e-07 0.000000000000e+00 -4.572357389312e-02 6.016205505686e-07 0.000000000000e+00 -4.619763895101e-02 6.116718427536e-07 0.000000000000e+00 -4.606669949403e-02 6.068929792830e-07 0.000000000000e+00 -4.676659184409e-02 5.915699313052e-07 0.000000000000e+00 -4.759742360500e-02 5.788944808458e-07 0.000000000000e+00 -4.807121839489e-02 5.726054798571e-07 0.000000000000e+00 -4.884301804918e-02 5.647614436269e-07 0.000000000000e+00 -4.861692026571e-02 5.818430149631e-07 0.000000000000e+00 -4.899720821451e-02 5.928491600029e-07 0.000000000000e+00 -4.889882450448e-02 5.884170395254e-07 0.000000000000e+00 -4.959871679877e-02 5.724526960685e-07 0.000000000000e+00 -5.039699274008e-02 5.576354760248e-07 0.000000000000e+00 -5.094269474964e-02 5.522742421802e-07 0.000000000000e+00 -5.173873485928e-02 5.418852777519e-07 0.000000000000e+00 -5.158454436439e-02 5.634157188347e-07 0.000000000000e+00 -5.179677712399e-02 5.754947274362e-07 0.000000000000e+00 -5.173094915570e-02 5.714535912164e-07 0.000000000000e+00 -5.243084128915e-02 5.547488370784e-07 0.000000000000e+00 -5.319656128462e-02 5.383587987811e-07 0.000000000000e+00 -5.383841093962e-02 5.342401927287e-07 0.000000000000e+00 -5.459634135475e-02 5.218615950148e-07 0.000000000000e+00 -5.453829874245e-02 5.299004903929e-07 0.000000000000e+00 -5.529623308392e-02 5.129014874390e-07 0.000000000000e+00 -5.599612058810e-02 5.256573446768e-07 0.000000000000e+00 -5.599612467428e-02 5.215147005115e-07 0.000000000000e+00 -5.669601610044e-02 5.208022651142e-07 0.000000000000e+00 -5.725834151072e-02 5.073525878119e-07 0.000000000000e+00 -5.725833743518e-02 5.310966707656e-07 0.000000000000e+00 -5.741552738976e-02 5.459389070201e-07 0.000000000000e+00 -5.741481084332e-02 5.427847035046e-07 0.000000000000e+00 -5.813431808237e-02 5.239848127168e-07 0.000000000000e+00 -5.885454157223e-02 5.092193720662e-07 0.000000000000e+00 -5.941686248415e-02 5.063897494333e-07 0.000000000000e+00 -6.002432733742e-02 4.950314319779e-07 0.000000000000e+00 -5.986714147775e-02 5.174378152305e-07 0.000000000000e+00 -6.029355442527e-02 5.322178692287e-07 0.000000000000e+00 -6.087203879052e-02 5.298604716355e-07 0.000000000000e+00 -6.159154411920e-02 5.115535321376e-07 0.000000000000e+00 -6.173256545211e-02 4.965670886362e-07 0.000000000000e+00 -6.218284370525e-02 4.916625955553e-07 0.000000000000e+00 -6.287051535730e-02 4.795795005052e-07 0.000000000000e+00 -6.260128893374e-02 5.065333897998e-07 0.000000000000e+00 -6.317157398814e-02 5.243034272654e-07 0.000000000000e+00 -6.367990369561e-02 5.229919809716e-07 0.000000000000e+00 -6.439940580918e-02 5.028404885804e-07 0.000000000000e+00 -6.461057915161e-02 4.851826591138e-07 0.000000000000e+00 -6.502902362387e-02 4.794092130369e-07 0.000000000000e+00 -6.590734763270e-02 4.629727705914e-07 0.000000000000e+00 -6.560629124652e-02 5.015792801173e-07 0.000000000000e+00 -6.604958000622e-02 5.227724809522e-07 0.000000000000e+00 -6.648775236335e-02 5.251016125479e-07 0.000000000000e+00 -6.720724879210e-02 5.051282386897e-07 0.000000000000e+00 -6.748857652924e-02 4.838347709264e-07 0.000000000000e+00 -6.806584667889e-02 4.938331597910e-07 0.000000000000e+00 -6.892757520984e-02 4.661648776392e-07 0.000000000000e+00 -6.878534694764e-02 5.005010170824e-07 0.000000000000e+00 -6.964707663521e-02 4.807978656767e-07 0.000000000000e+00 -7.036658124284e-02 5.078956594668e-07 0.000000000000e+00 -7.036658014619e-02 5.151346100430e-07 0.000000000000e+00 -7.108608570491e-02 5.264099173204e-07 0.000000000000e+00 -7.161245445547e-02 4.953473162015e-07 0.000000000000e+00 -7.161245393807e-02 5.527726192804e-07 0.000000000000e+00 -7.173390927835e-02 5.895529845457e-07 0.000000000000e+00 -7.203177886738e-02 5.958484663542e-07 0.000000000000e+00 -7.267960491840e-02 5.644805042452e-07 0.000000000000e+00 -7.302955884973e-02 5.404057717089e-07 0.000000000000e+00 -7.355592446308e-02 5.457623109213e-07 0.000000000000e+00 -7.411219223702e-02 5.146213786217e-07 0.000000000000e+00 -7.399073505177e-02 5.760346630589e-07 0.000000000000e+00 -7.432519852892e-02 6.166078909647e-07 0.000000000000e+00 -7.462459230270e-02 6.263697384020e-07 0.000000000000e+00 -7.527240104179e-02 5.936955055788e-07 0.000000000000e+00 -7.562081947244e-02 5.660127350579e-07 0.000000000000e+00 -7.605562320363e-02 5.759012271548e-07 0.000000000000e+00 -7.666294915622e-02 5.255228538958e-07 0.000000000000e+00 -7.644995123705e-02 6.246180191388e-07 0.000000000000e+00 -7.691640372948e-02 6.559883537327e-07 0.000000000000e+00 -7.721730395298e-02 6.480047920387e-07 0.000000000000e+00 -7.786507967262e-02 6.371331216540e-07 0.000000000000e+00 -7.821191701929e-02 6.136788958146e-07 0.000000000000e+00 -7.860618293982e-02 5.434593828600e-07 0.000000000000e+00 -7.925645775502e-02 5.698182909801e-07 0.000000000000e+00 -7.900291212341e-02 5.327759621983e-07 0.000000000000e+00 -7.950756425084e-02 5.401421997489e-07 0.000000000000e+00 -7.981009500529e-02 5.246609896770e-07 0.000000000000e+00 -8.045797129569e-02 5.075866043802e-07 0.000000000000e+00 -8.080335867133e-02 5.100194897014e-07 0.000000000000e+00 -8.120019603705e-02 5.168504742732e-07 0.000000000000e+00 -8.186419147754e-02 5.197594320352e-07 0.000000000000e+00 -8.161315578657e-02 5.243967060438e-07 0.000000000000e+00 -8.209908879688e-02 5.364060523595e-07 0.000000000000e+00 -8.240308148771e-02 5.449207328023e-07 0.000000000000e+00 -8.305091829379e-02 5.494313516983e-07 0.000000000000e+00 -8.339476263875e-02 5.492486856057e-07 0.000000000000e+00 -8.380770048318e-02 5.699481085613e-07 0.000000000000e+00 -8.446235665581e-02 5.310007343239e-07 0.000000000000e+00 -8.422749163246e-02 5.588473306142e-07 0.000000000000e+00 -8.469037437044e-02 5.193701689959e-07 0.000000000000e+00 -8.499592237530e-02 4.834808536568e-07 0.000000000000e+00 -8.564377522762e-02 4.781223301782e-07 0.000000000000e+00 -8.598606189546e-02 4.708665794193e-07 0.000000000000e+00 -8.640588412141e-02 4.544774854261e-07 0.000000000000e+00 -8.703796305009e-02 4.995497590376e-07 0.000000000000e+00 -8.680989495799e-02 4.298217080398e-07 0.000000000000e+00 -8.728187121402e-02 4.093765317015e-07 0.000000000000e+00 -8.758855447184e-02 3.990837519640e-07 0.000000000000e+00 -8.823644831568e-02 4.104577996326e-07 0.000000000000e+00 -8.857766782903e-02 3.924219303342e-07 0.000000000000e+00 -8.888433895178e-02 4.231210880390e-07 0.000000000000e+00 -8.898166315467e-02 4.186601851984e-07 0.000000000000e+00 -8.959906480751e-02 4.399411152216e-07 0.000000000000e+00 -8.935517004920e-02 4.017590872108e-07 0.000000000000e+00 -8.987344541072e-02 3.881085620760e-07 0.000000000000e+00 -8.953333761419e-02 3.802786763643e-07 0.000000000000e+00 -8.919212010255e-02 3.716826805585e-07 0.000000000000e+00 -8.949990007063e-02 3.674988250295e-07 0.000000000000e+00 -9.014889234378e-02 3.653937662692e-07 0.000000000000e+00 -8.980767902093e-02 3.646231973056e-07 0.000000000000e+00 -9.079677111747e-02 3.581749845841e-07 0.000000000000e+00 -9.110565733344e-02 3.569478649992e-07 0.000000000000e+00 -9.061350355381e-02 3.629582003933e-07 0.000000000000e+00 -8.983838013784e-02 3.606114904567e-07 0.000000000000e+00 -8.999521753927e-02 3.693786050815e-07 0.000000000000e+00 -8.918939121670e-02 3.773389003876e-07 0.000000000000e+00 -8.857110806600e-02 3.778041159341e-07 0.000000000000e+00 -8.854040193746e-02 3.886205156708e-07 0.000000000000e+00 -8.789141293623e-02 4.028923442269e-07 0.000000000000e+00 -8.721153338876e-02 4.017036205389e-07 0.000000000000e+00 -8.724224478328e-02 4.193151627650e-07 0.000000000000e+00 -8.656254798857e-02 4.353655001915e-07 0.000000000000e+00 -8.591339014148e-02 
        </DataArray>
      </PointData>
      <CellData>
        <DataArray type="Int32" Name="MatGroup" format="ascii">
          0 0 0 0 0 0 0 0 0 0 0 0 0 0 0 0 0 0 0 0 0 0 0 0 0 0 0 0 0 0 0 0 0 0 0 0 0 0 0 0 0 0 0 0 0 0 0 0 0 0 0 0 0 0 0 0 0 0 0 0 0 0 0 0 0 0 0 0 0 0 0 0 0 0 0 0 0 0 0 0 0 0 0 0 0 0 0 0 0 0 0 0 0 0 0 0 0 0 0 0 0 0 0 0 0 0 0 0 0 0 0 0 0 0 0 0 0 0 0 0 0 0 0 0 0 0 0 0 0 0 0 0 0 0 0 0 0 0 0 0 0 0 0 0 0 0 0 0 0 0 0 0 0 0 0 0 0 0 0 0 0 0 0 0 0 0 0 0 0 0 0 0 0 0 0 0 0 0 0 0 0 0 0 0 0 0 0 0 0 0 0 0 0 0 0 0 0 0 0 0 0 0 0 0 0 0 0 0 0 0 0 0 0 0 0 0 0 0 0 0 0 0 0 0 0 0 0 0 0 0 0 0 0 0 0 0 0 0 0 0 0 0 0 0 0 0 0 0 0 0 0 0 0 0 0 0 0 0 0 0 0 0 0 0 0 0 0 0 0 0 0 0 0 0 0 0 0 0 0 0 0 0 0 0 0 0 0 0 0 0 0 0 0 0 0 0 0 0 0 0 0 0 0 0 0 0 0 0 0 0 0 0 0 0 0 0 0 0 0 0 0 0 0 0 0 0 0 0 0 0 0 0 0 0 0 0 0 0 0 0 0 0 0 0 0 0 0 0 0 0 0 0 0 0 0 0 0 0 0 0 0 0 0 0 0 0 0 0 0 0 0 0 0 0 0 0 0 0 0 0 0 0 0 0 0 0 0 0 0 0 0 0 0 0 0 0 0 0 0 0 0 0 0 0 0 0 0 0 0 0 0 0 0 0 0 0 0 0 0 0 0 0 0 0 0 0 0 0 0 0 0 0 0 0 0 0 0 0 0 0 0 0 0 0 0 0 0 0 0 0 0 0 0 0 0 0 0 0 0 0 0 0 0 0 0 0 0 0 0 0 0 0 0 0 0 0 0 0 0 0 0 0 0 0 0 0 0 0 0 0 0 0 0 0 0 0 0 0 0 0 0 0 0 0 0 0 0 0 0 0 0 0 0 0 0 0 0 0 0 0 0 0 0 0 0 0 0 0 0 0 0 0 0 0 0 0 0 0 0 0 0 0 0 0 0 0 0 0 0 0 0 0 0 0 0 0 0 0 0 0 0 0 0 0 0 0 0 0 0 0 0 0 0 0 0 0 0 0 0 0 0 0 0 0 0 0 0 0 0 0 0 0 0 0 0 0 0 0 0 0 0 0 0 0 0 0 0 0 0 0 0 0 0 0 0 0 0 0 0 0 0 0 0 0 0 0 0 0 0 0 0 0 0 0 0 0 0 0 0 0 0 0 0 0 0 0 0 0 0 0 0 0 0 0 0 0 0 0 0 0 0 0 0 0 0 0 0 0 0 0 0 0 0 0 0 0 0 0 0 0 0 0 0 0 0 0 0 0 0 0 0 0 0 0 0 0 0 0 0 0 0 0 0 0 0 0 0 0 0 0 0 0 0 0 0 0 0 0 0 0 0 0 0 0 0 0 0 0 0 0 0 0 0 0 0 0 0 0 0 0 0 0 0 0 0 0 0 0 0 0 0 0 0 0 0 0 0 0 0 0 0 0 0 0 0 0 0 0 0 0 0 0 0 0 0 0 0 0 0 0 0 0 0 0 0 0 0 0 0 0 0 0 0 0 0 0 0 0 0 0 0 0 0 0 0 0 0 0 0 0 0 0 0 0 0 0 0 0 0 0 0 0 0 0 0 0 0 0 0 0 0 0 0 0 0 0 0 0 0 0 0 0 0 0 0 0 0 0 0 0 0 0 0 0 0 0 0 0 0 0 0 0 0 0 0 0 0 0 0 0 0 0 0 0 0 0 0 0 0 0 0 0 0 0 0 0 0 0 0 0 0 0 0 0 0 0 0 0 0 0 0 0 0 0 0 0 0 0 0 0 0 0 0 0 0 0 0 0 0 0 0 0 0 0 0 0 0 0 0 0 0 0 0 0 0 0 0 0 0 0 0 0 0 0 0 0 0 0 0 0 0 0 0 0 0 0 0 0 0 0 0 0 0 0 0 0 0 0 0 0 0 0 0 0 0 0 0 0 0 0 0 0 0 0 0 0 0 0 0 0 0 0 0 0 0 0 0 0 0 0 0 0 0 0 0 0 0 0 0 0 0 0 0 0 0 0 0 0 0 0 0 0 0 0 0 0 0 0 0 0 0 0 0 0 0 0 0 0 0 0 0 0 0 0 0 0 0 0 0 0 0 0 0 0 0 0 0 0 0 0 0 0 0 0 0 0 0 0 0 0 0 0 0 0 0 0 0 0 0 0 0 0 0 0 0 0 0 0 0 0 0 0 0 0 0 0 0 0 0 0 0 0 0 0 0 0 0 0 0 0 0 0 0 0 0 0 0 0 0 0 0 0 0 0 0 0 0 0 0 0 0 0 0 0 0 0 0 0 0 0 0 0 0 0 0 0 0 0 0 0 0 0 0 0 0 0 0 0 0 0 0 0 0 0 0 0 0 0 0 0 0 0 0 0 0 0 0 0 0 0 0 0 0 0 0 0 0 0 0 0 0 0 0 0 0 0 0 0 0 0 0 0 0 0 0 0 0 0 0 0 0 0 0 0 0 0 0 0 0 0 0 0 0 0 0 0 0 0 0 0 0 0 0 0 0 0 0 0 0 0 0 0 0 0 0 0 0 0 0 0 0 0 0 0 0 0 0 0 0 0 0 0 0 0 0 0 0 0 0 0 0 0 0 0 0 0 0 0 0 0 0 0 0 0 0 0 0 0 0 0 0 0 0 0 0 0 0 0 0 0 0 0 0 0 0 0 0 0 0 0 0 0 0 0 0 0 0 0 0 0 0 0 0 0 0 0 0 0 0 0 0 0 0 0 0 0 0 0 0 0 0 0 0 0 0 0 0 0 0 0 0 0 0 0 0 0 0 0 0 0 0 0 0 0 0 0 0 0 0 0 0 0 0 0 0 0 0 0 0 0 0 0 0 0 0 0 0 0 0 0 0 0 0 0 0 0 0 0 0 0 0 0 0 0 0 0 0 0 0 0 0 0 0 0 0 0 0 0 0 0 0 0 0 0 0 0 0 0 0 0 0 0 0 0 0 0 0 0 0 0 0 0 0 0 0 0 0 0 0 0 0 0 0 0 0 0 0 0 0 0 0 0 0 0 0 0 0 0 0 0 0 0 0 0 0 0 0 0 0 0 0 0 0 0 0 0 0 0 0 0 0 0 0 0 0 0 0 0 0 0 0 0 0 0 0 0 0 0 0 1 1 1 1 1 1 1 1 1 1 1 1 1 1 1 1 1 1 1 1 1 1 1 1 1 1 1 1 1 1 1 1 1 1 1 1 1 1 1 1 1 1 1 1 1 1 1 1 1 1 1 1 1 1 1 1 1 1 1 1 1 1 1 1 1 1 1 1 1 1 1 1 1 1 1 1 1 1 1 1 1 1 1 1 1 1 1 1 1 1 1 1 1 1 1 1 1 1 1 1 1 1 1 1 1 1 1 1 1 1 1 1 1 1 1 1 1 1 1 1 1 1 1 1 1 1 1 1 1 1 1 1 1 1 1 1 1 1 1 1 1 1 1 1 1 1 1 1 1 1 1 1 1 1 1 1 1 1 1 1 1 1 1 1 1 1 1 1 1 1 1 1 1 1 1 1 1 1 1 1 1 1 1 1 1 1 1 1 1 1 1 1 1 1 1 1 1 1 1 1 1 1 1 1 1 1 1 1 1 1 1 1 1 1 1 1 1 1 1 1 1 1 1 1 1 1 1 1 1 1 1 1 1 1 1 1 1 1 1 1 1 1 1 1 1 1 1 1 1 1 1 1 1 1 1 1 1 1 1 1 1 1 1 1 1 1 1 1 1 1 1 1 1 1 1 1 1 1 1 1 1 1 1 1 1 1 1 1 1 1 1 1 1 1 1 1 1 1 1 1 1 1 1 1 1 1 1 1 1 1 1 1 1 1 1 1 1 1 1 1 1 1 1 1 1 1 1 1 1 1 1 1 1 1 1 1 1 1 1 1 1 1 1 1 1 1 1 1 1 1 1 1 1 1 1 1 1 1 1 1 1 1 1 1 1 1 1 1 1 1 1 1 1 1 1 1 1 1 1 1 1 1 1 1 1 1 1 1 1 1 1 1 1 1 1 1 1 1 1 1 1 1 1 1 1 1 1 1 1 5 5 5 5 5 5 5 5 5 5 5 5 5 5 5 5 5 5 5 5 5 5 5 5 5 5 5 5 5 5 5 5 5 5 5 5 5 5 5 5 5 5 5 5 5 5 5 5 5 5 5 5 5 5 5 5 5 5 5 5 5 5 5 5 5 5 5 5 5 5 5 5 5 5 5 5 5 5 5 5 5 5 5 5 5 5 5 5 5 5 6 6 6 6 6 6 6 6 6 6 6 6 6 6 6 6 6 6 6 6 6 6 6 6 6 6 6 6 6 6 6 6 6 6 6 6 6 6 6 6 6 6 6 6 6 6 6 6 6 6 6 6 6 6 6 6 6 6 6 6 6 6 6 6 6 6 6 6 6 6 6 6 6 6 6 6 6 6 6 6 6 6 6 6 6 6 6 6 6 6 6 6 6 6 6 6 6 6 6 6 6 6 6 6 6 6 6 6 6 6 6 6 6 6 6 6 6 6 6 6 6 6 6 6 6 6 6 6 6 6 6 6 6 6 6 6 6 6 6 6 6 6 6 6 6 6 6 6 6 6 6 6 6 6 6 6 6 6 6 6 6 6 6 6 6 6 6 6 6 6 6 6 6 6 6 6 6 6 6 6 6 6 6 6 6 6 6 6 6 6 6 6 6 6 6 6 6 6 6 6 6 6 6 6 6 6 6 6 6 6 6 6 6 6 6 6 6 6 6 6 6 6 6 6 6 6 6 6 6 6 6 6 6 6 6 6 6 6 6 6 6 6 6 6 6 6 6 6 6 6 6 6 6 6 6 6 6 6 6 6 6 6 6 6 6 6 6 6 6 6 6 6 6 6 6 6 6 6 6 6 6 6 6 6 6 6 6 6 6 6 6 6 6 6 6 6 6 6 6 6 6 6 6 6 6 6 6 6 6 6 6 6 6 6 6 6 6 6 6 6 6 6 6 6 6 6 6 6 6 6 6 6 6 6 6 6 6 6 6 6 6 6 6 6 6 6 6 6 6 6 6 6 6 6 6 6 6 6 6 6 6 6 6 6 6 6 6 6 6 6 6 6 6 6 6 6 6 6 6 6 6 6 6 6 6 6 6 6 6 6 6 6 6 6 6 6 6 6 6 6 6 6 6 6 6 6 6 6 6 6 6 6 6 6 6 6 6 6 6 6 6 6 6 6 6 6 6 6 6 6 6 6 6 6 6 6 6 6 6 6 6 6 6 6 6 6 6 6 6 6 6 6 6 6 6 6 6 6 6 6 6 6 6 6 6 6 6 6 6 6 6 6 6 6 6 6 6 6 6 6 6 6 6 6 6 6 6 6 6 6 6 6 6 6 6 6 6 6 6 6 6 6 6 6 6 6 6 6 6 6 6 6 6 6 6 6 6 6 6 6 6 6 6 6 6 6 6 6 6 6 6 6 6 6 6 6 6 6 6 6 6 6 6 6 6 6 6 6 6 6 6 6 6 6 6 6 6 6 6 6 6 6 6 6 6 6 6 6 6 6 6 6 6 6 6 6 6 6 6 6 6 6 6 6 6 6 6 6 6 6 6 6 6 6 6 6 6 6 6 6 6 6 6 6 6 6 6 6 6 6 6 6 6 6 6 6 6 6 6 6 6 6 6 6 6 6 6 6 6 6 6 6 6 6 6 6 6 6 6 6 6 6 6 6 6 6 6 6 6 6 6 6 6 6 6 6 6 6 6 6 6 6 6 6 6 6 6 6 6 6 6 6 6 6 6 6 6 6 6 6 6 6 6 6 6 6 6 6 6 6 6 6 6 6 6 6 6 6 6 6 6 6 6 6 6 6 6 6 6 6 6 6 6 6 6 6 6 6 6 6 6 6 6 6 6 6 6 6 6 6 6 6 6 6 6 6 6 6 6 6 6 6 6 6 6 6 6 6 6 6 6 6 6 6 2 2 2 2 2 2 2 2 2 2 2 2 2 2 2 2 2 2 2 2 2 2 2 2 2 2 2 2 2 2 2 2 2 2 2 2 2 2 2 2 2 2 2 2 2 2 2 2 2 2 2 2 2 2 2 2 2 2 2 2 2 2 2 2 2 2 2 2 2 2 2 2 2 2 2 2 2 2 2 2 2 2 2 2 2 2 2 2 2 2 2 2 2 2 2 2 2 2 2 2 2 2 2 2 2 2 2 2 2 2 2 2 2 2 2 2 2 2 2 2 2 2 2 2 2 2 2 2 2 2 2 2 2 2 2 2 2 2 2 2 2 2 2 2 2 2 2 2 2 2 2 2 2 2 2 2 2 2 2 2 2 2 2 2 2 2 2 2 2 2 2 2 2 2 2 2 2 2 2 2 2 2 2 2 2 2 2 2 2 2 2 2 2 2 2 2 2 2 2 2 2 3 3 3 3 3 3 3 3 3 3 3 3 3 3 3 3 3 3 3 3 3 3 3 3 3 3 3 3 3 3 3 3 3 3 3 3 3 3 3 3 3 3 3 3 3 3 3 3 3 3 3 3 3 3 3 3 3 3 3 3 3 3 3 3 3 3 3 3 3 3 3 3 3 3 3 3 3 3 3 3 3 3 3 3 3 3 3 3 3 3 3 3 3 3 3 3 3 3 3 3 3 3 3 3 3 3 3 3 3 3 3 3 3 3 3 3 3 3 3 3 3 3 3 3 3 3 3 3 3 3 3 3 3 3 3 3 3 3 3 3 3 3 3 3 3 3 3 3 3 3 3 3 3 3 3 3 3 3 3 3 3 3 3 3 3 3 3 3 3 3 3 3 3 3 3 3 3 3 3 3 3 3 3 3 3 3 3 3 3 3 3 3 3 3 3 3 3 3 3 3 3 3 3 3 3 3 3 3 3 3 3 3 3 3 3 3 3 3 3 3 3 3 3 3 3 3 3 3 3 3 3 3 3 3 3 3 3 3 3 3 3 3 3 3 3 3 3 3 3 3 3 3 3 3 3 3 3 3 3 3 3 3 3 3 3 3 3 3 3 3 3 3 3 3 3 3 3 3 3 3 3 3 3 3 3 3 3 3 3 3 3 3 3 3 3 3 3 3 4 4 4 4 4 4 4 4 4 4 4 4 4 4 4 4 4 4 4 4 4 4 4 4 4 4 4 4 4 4 4 4 4 4 4 4 4 4 4 4 4 4 4 4 4 4 4 4 4 4 4 4 4 4 4 4 4 4 4 4 4 4 4 4 4 4 4 4 4 4 4 4 4 4 4 4 4 4 4 4 4 4 4 4 4 4 4 4 4 4 4 4 4 4 4 4 4 4 4 4 4 4 4 4 4 4 4 4 4 4 4 4 4 4 4 4 4 4 4 4 4 4 4 4 4 4 4 4 4 4 4 4 4 4 4 4 4 4 4 4 4 4 4 4 4 4 4 4 4 4 4 4 4 4 4 4 4 4 4 4 4 4 4 4 4 4 4 4 4 4 4 4 4 4 4 4 4 4 4 4 4 4 4 4 4 4 4 4 4 4 4 4 4 4 4 4 4 4 4 4 4 4 4 4 4 4 4 4 4 4 4 4 4 4 4 4 4 4 4 4 4 4 4 4 4 4 4 4 4 4 4 4 4 4 4 4 4 4 4 4 4 4 4 4 4 4 4 4 4 4 4 4 4 4 4 4 4 4 4 4 4 4 4 7 7 7 7 7 7 7 7 7 7 7 7 7 7 7 7 7 7 7 7 7 7 7 7 7 7 7 7 7 7 7 7 7 7 7 7 7 7 7 7 7 7 7 7 7 7 7 7 7 7 7 7 7 7 7 7 7 7 7 7 7 7 7 7 7 7 7 7 7 7 7 7 7 7 7 7 7 7 7 7 7 7 7 7 7 7 7 7 7 7 7 7 7 7 7 7 7 7 7 7 7 7 7 7 7 7 7 7 7 7 7 7 7 7 7 7 7 7 7 7 7 7 7 7 7 7 7 7 7 7 7 7 7 7 7 7 7 7 7 7 7 7 7 7 7 7 7 7 7 7 7 7 7 7 7 7 7 7 7 7 7 7 7 7 7 7 7 7 7 7 7 7 7 7 7 7 7 7 7 7 7 7 7 7 7 7 7 7 7 7 7 7 7 7 7 7 7 7 7 7 7 7 7 7 7 7 7 7 7 7 7 7 7 7 7 7 7 7 7 7 7 7 7 7 7 7 7 7 7 7 7 7 7 7 7 7 7 7 7 7 7 7 7 7 7 7 7 7 7 7 7 7 7 7 7 7 7 7 7 7 7 7 7 7 7 7 7 7 7 7 7 7 7 7 7 7 7 7 7 7 7 7 7 7 7 7 7 7 7 7 7 7 7 7 7 7 7 7 7 7 7 7 7 7 7 7 7 7 7 7 7 7 7 7 7 7 7 7 7 7 7 7 7 7 7 7 7 7 7 7 7 7 7 7 7 7 7 7 7 7 7 7 7 7 7 7 7 7 7 7 7 7 7 7 7 7 7 7 7 7 7 7 7 7 7 7 7 7 7 7 7 7 7 7 7 7 7 7 7 7 7 7 7 7 7 7 7 7 7 8 8 8 8 8 8 8 8 8 8 8 8 8 8 8 8 8 8 8 8 8 8 8 8 8 8 8 8 8 8 8 8 8 8 8 8 8 8 8 8 8 8 8 8 8 8 8 8 8 8 8 8 8 8 8 8 8 8 8 8 8 8 8 8 8 8 8 8 8 8 8 8 8 8 8 8 8 8 8 8 8 8 8 8 8 8 8 8 8 8 8 8 8 8 8 8 8 8 8 8 8 8 8 8 8 8 8 8 8 8 8 8 8 8 8 8 8 8 8 8 8 8 8 8 8 8 8 8 8 8 8 8 8 8 8 8 8 8 8 8 8 8 8 8 8 8 8 8 8 8 8 8 8 8 8 8 8 8 8 8 8 8 8 8 8 8 8 8 8 8 8 8 8 8 8 8 8 8 8 8 8 8 8 8 8 8 8 8 8 8 8 8 8 8 8 8 8 8 8 8 8 8 8 8 8 8 8 8 8 8 8 8 8 8 8 8 8 8 8 8 8 8 8 8 8 8 8 8 8 8 8 8 8 8 8 8 8 8 8 8 8 8 8 8 8 8 8 8 8 8 8 8 8 8 8 8 8 8 8 8 8 8 8 8 8 8 8 8 8 8 8 8 8 8 8 8 8 8 8 8 8 8 8 8 8 8 8 8 8 8 8 8 8 8 8 8 8 8 8 8 8 8 8 8 8 8 8 8 8 8 8 8 8 8 8 8 8 8 8 8 8 8 8 8 8 8 8 8 8 8 8 8 8 8 8 8 8 8 8 8 8 8 8 8 8 8 8 8 8 8 8 8 8 8 8 8 8 8 8 8 8 8 8 8 8 8 8 8 8 8 8 8 8 8 8 8 8 8 8 8 8 8 8 8 8 8 8 8 8 8 8 8 8 8 8 8 8 8 8 8 8 8 8 8 8 8 8 8 8 8 8 8 8 8 8 8 8 8 8 8 8 8 8 8 8 8 8 8 8 8 8 8 8 8 8 8 8 8 8 8 8 8 8 8 8 8 8 8 8 8 8 8 8 8 8 8 8 8 8 8 8 8 8 8 8 8 8 8 8 8 8 8 8 8 8 8 8 8 8 8 8 8 8 8 8 8 8 8 8 8 8 8 8 8 8 8 8 8 8 8 8 8 8 8 8 8 8 8 8 8 8 8 8 8 8 8 8 8 8 8 8 8 8 8 8 8 8 8 8 8 8 8 8 8 8 8 8 8 8 8 8 8 8 8 8 8 8 8 8 8 8 8 8 8 8 8 8 8 8 8 8 8 8 8 8 8 8 8 8 8 8 8 8 8 8 8 8 8 8 8 8 8 8 8 8 8 8 8 8 8 8 8 8 8 8 8 8 8 8 8 8 8 8 8 8 8 8 8 8 8 8 8 8 8 8 8 8 8 8 8 8 8 8 8 8 8 8 8 8 8 8 8 8 8 8 8 8 8 8 8 8 8 8 8 8 8 8 8 8 8 8 8 8 8 8 8 8 8 8 8 8 8 8 8 8 8 8 8 8 8 8 8 8 8 8 8 8 8 8 8 8 8 8 8 8 8 8 8 8 8 8 8 8 8 8 8 8 8 8 8 8 8 8 8 8 8 8 8 8 8 8 8 8 8 8 8 8 8 8 8 8 8 8 8 8 8 8 8 8 8 8 8 8 8 8 8 8 8 8 8 8 8 8 8 8 8 8 8 8 8 8 8 8 8 8 8 8 8 8 8 8 8 8 8 8 8 8 8 8 8 8 8 8 8 8 8 8 8 8 8 8 8 8 8 8 8 8 8 8 8 8 8 8 8 8 8 9 9 9 9 9 9 9 9 9 9 9 9 9 9 9 9 9 9 9 9 9 9 9 9 9 9 9 9 9 9 9 9 9 9 9 9 9 9 9 9 9 9 9 9 9 9 9 9 9 9 9 9 9 9 9 9 9 9 9 9 9 9 9 9 9 9 9 9 9 9 9 9 9 9 9 9 9 9 9 9 9 9 9 9 9 9 9 9 9 9 9 9 9 9 9 9 9 9 9 9 9 9 9 9 9 9 9 9 9 9 9 9 9 9 9 9 9 9 9 9 9 9 9 9 9 9 9 9 9 9 9 9 9 9 9 9 9 9 9 9 9 9 9 9 9 9 9 9 9 9 9 9 9 9 9 9 9 9 9 9 9 9 9 9 9 9 9 9 9 9 9 9 9 9 9 9 9 9 9 9 9 9 9 9 9 9 9 9 9 9 9 9 9 9 9 9 9 9 9 9 9 9 9 9 9 9 9 9 9 9 9 9 9 9 9 9 9 9 9 9 9 9 9 9 9 9 9 9 9 9 9 9 9 9 9 9 9 9 9 9 9 9 9 9 9 9 9 9 9 9 9 9 9 9 9 9 9 9 9 9 9 9 9 9 9 9 9 9 9 9 9 9 9 9 9 9 9 9 9 9 9 9 9 9 9 9 9 9 9 9 9 9 9 9 9 9 9 9 9 9 9 9 9 9 9 9 9 9 9 9 9 9 9 9 9 9 9 9 9 9 9 9 9 9 9 9 9 9 9 9 9 9 9 9 9 9 9 9 9 9 9 9 9 9 9 9 9 9 9 9 9 9 9 9 9 9 9 9 9 9 9 9 9 9 9 9 9 9 9 9 9 9 9 9 9 9 9 9 9 9 9 9 9 9 9 9 9 9 9 9 9 9 9 9 9 9 9 9 9 9 9 9 9 9 9 9 9 9 9 9 9 9 9 9 9 9 9 5 5 5 0 0 0 0 0 0 0 0 0 0 0 0 0 0 0 0 0 0 0 0 0 0 0 0 0 0 0 0 0 0 0 0 0 0 0 0 0 0 0 0 0 0 0 0 0 0 5 5 5 0 0 0 0 0 0 0 0 0 0 5 5 5 5 5 5 0 0 0 0 0 0 0 0 0 0 0 0 0 0 5 5 5 5 5 5 0 0 0 0 0 0 0 0 0 0 5 5 5 5 5 5 0 0 0 0 0 0 0 0 0 0 0 0 0 0 5 5 5 5 5 5 0 0 0 0 0 0 0 0 0 0 0 0 0 0 0 0 0 5 5 5 5 5 5 5 5 5 5 5 5 0 0 0 0 0 0 0 1 1 1 1 1 1 1 1 1 1 1 1 1 1 5 5 5 5 5 5 0 0 0 0 0 0 0 0 0 0 5 5 5 5 5 5 1 1 1 1 1 1 1 1 1 1 1 1 1 1 5 5 5 5 5 5 5 5 5 1 1 1 1 1 1 1 1 1 1 1 1 1 1 1 1 1 1 1 2 2 2 2 2 2 2 2 3 3 3 3 3 3 3 3 3 3 3 3 3 3 3 3 3 3 3 3 4 4 4 4 4 4 4 4 4 4 4 4 4 4 4 4 4 4 4 4 4 4 4 5 5 5 4 4 4 4 4 4 4 4 4 4 4 4 4 4 5 5 5 5 5 5 9 9 9 9 9 9 9 9 9 9 9 9 9 9 5 5 5 5 5 5 4 4 4 4 4 4 4 4 4 4 5 5 5 5 5 5 9 9 9 9 9 9 9 9 9 9 9 9 9 9 5 5 5 5 5 5 4 4 4 4 4 4 4 4 4 4 5 5 5 5 5 5 9 9 9 9 9 9 9 8 8 8 8 8 8 8 5 5 5 5 5 5 4 4 4 4 4 4 4 4 4 4 5 5 5 5 5 5 8 8 8 8 8 8 8 8 8 8 8 8 8 8 5 5 5 5 5 5 4 4 4 4 4 4 4 4 4 4 5 5 5 5 5 5 8 8 8 8 8 8 8 8 8 8 8 5 5 5 8 8 8 8 5 5 5 7 7 7 7 5 5 5 5 5 5 5 5 5 5 5 5 6 6 6 6 6 6 6 6 6 6 6 6 6 6 6 6 6 6 6 6 6 6 6 6 6 6 6 6 6 6 6 6 6 6 6 6 6 6 6 6 6 6 6 6 6 6 6 6 6 6 6 6 6 6 6 6 6 6 6 6 6 6 6 6 6 6 6 6 6 6 7 7 7 7 7 7 7 5 5 5 5 5 5 5 5 5 7 7 7 7 7 7 7 7 7 7 7 7 7 7 7 7 7 7 7 7 7 7 7 7 5 5 5 5 5 5 5 5 5 5 5 5 8 8 8 8 8 8 8 8 8 8 8 8 8 8 8 8 8 8 8 8 8 8 8 8 5 5 5 5 5 5 5 5 5 8 8 8 8 8 8 8 8 8 8 5 5 5 5 5 5 5 5 5 5 5 5 3 3 3 3 3 3 3 3 3 3 5 5 5 5 5 5 5 5 5 3 3 3 3 3 3 3 3 3 3 5 5 5 5 5 5 5 5 5 3 3 3 3 3 3 3 3 3 3 5 5 5 5 5 5 5 5 5 3 3 3 3 3 3 3 3 3 3 5 5 5 5 5 5 5 5 5 3 3 3 3 3 3 3 3 3 3 2 2 2 2 2 2 2 5 5 5 5 5 5 5 5 5 5 5 5 2 2 2 2 2 2 2 2 2 2 5 5 5 5 5 5 5 5 5 2 2 2 2 2 2 2 2 2 2 5 5 5 5 5 5 5 5 5 1 1 1 1 1 1 1 1 1 1 5 5 5 5 5 5 5 5 5 1 1 1 1 1 1 1 1 1 1 5 5 5 5 5 5 5 5 5 1 1 1 1 1 1 1 1 1 1 5 5 5 5 5 5 6 6 6 6 6 6 6 0 0 0 5 5 5 5 5 5 0 0 0 0 0 0 0 0 1 1 1 1 0 0 0 0 0 0 0 0 0 0 0 0 0 0 0 0 0 0 0 0 0 0 0 0 0 0 0 0 0 0 0 0 0 0 0 0 0 0 0 0 0 0 0 0 0 0 0 0 0 0 0 0 0 0 0 0 0 0 0 0 0 0 0 0 0 0 0 0 0 0 0 0 0 0 5 5 5 5 5 5 5 5 5 5 5 5 5 5 5 5 5 5 0 0 0 0 0 0 0 0 0 0 5 5 5 5 5 5 5 5 5 5 5 5 5 5 5 0 0 0 0 0 0 0 0 0 0 5 5 5 5 5 5 5 5 5 5 5 5 5 5 5 0 0 0 0 0 0 0 0 0 0 5 5 5 5 5 5 5 5 5 5 5 5 5 5 5 0 0 0 0 0 0 0 0 0 0 5 5 5 5 5 5 5 5 5 0 0 0 0 0 0 0 0 0 0 5 5 5 0 0 0 0 0 0 0 0 0 0 5 5 5 5 5 5 5 5 5 0 0 0 0 0 0 0 0 0 0 5 5 5 5 5 5 5 5 5 0 0 0 0 0 0 0 0 0 0 5 5 5 5 5 5 5 5 5 0 0 0 0 0 0 0 0 0 0 5 5 5 5 5 5 5 5 5 0 0 0 0 0 0 0 0 0 0 5 5 5 5 5 5 5 5 5 5 5 5 5 5 5 0 0 0 0 0 0 0 0 0 0 5 5 5 5 5 5 5 5 5 5 5 5 5 5 5 5 5 5 0 0 0 0 0 0 0 1 1 1 1 1 1 1 1 1 1 5 5 5 5 5 5 5 5 5 5 5 5 0 0 0 0 0 0 0 0 0 0 5 5 5 5 5 5 5 5 5 5 5 5 1 1 1 1 1 1 1 1 1 1 1 1 1 1 5 5 5 5 5 5 5 5 5 5 5 5 0 0 0 0 0 0 0 0 0 0 5 5 5 5 5 5 5 5 5 5 5 5 1 1 1 1 1 1 1 1 1 1 1 1 1 1 5 5 5 5 5 5 5 5 5 1 1 1 1 1 1 1 1 1 1 1 1 1 1 1 1 1 1 1 1 1 1 1 1 1 1 1 1 1 1 1 1 1 1 1 2 2 2 2 2 2 2 2 2 2 2 2 2 2 2 2 3 3 3 3 3 3 3 3 3 3 3 3 3 3 3 3 3 3 3 3 3 3 3 3 3 3 3 3 3 3 3 3 5 5 5 5 5 5 3 3 3 3 4 4 4 4 4 4 4 4 4 4 4 4 8 8 8 8 4 4 4 4 4 4 4 4 4 4 4 4 4 4 4 4 4 4 4 4 4 4 4 4 4 4 4 4 4 4 4 9 9 9 9 9 9 9 9 9 9 9 9 5 5 5 5 5 5 5 5 5 5 5 5 9 9 9 9 9 9 9 9 9 9 9 9 9 9 5 5 5 5 5 5 5 5 5 5 5 5 5 5 5 9 9 9 9 9 9 9 9 9 9 5 5 5 5 5 5 5 5 5 5 5 5 5 5 5 9 9 9 9 9 9 9 9 9 9 5 5 5 5 5 5 5 5 5 5 5 5 5 5 5 5 5 5 5 5 5 9 9 9 9 9 9 9 9 9 9 9 9 9 9 9 9 9 5 5 5 5 5 5 5 5 5 5 5 5 4 4 4 4 4 4 4 4 4 4 4 4 4 4 5 5 5 5 5 5 5 5 5 4 4 4 4 4 4 4 4 4 4 5 5 5 5 5 5 5 5 5 4 4 4 4 4 4 4 4 4 4 5 5 5 5 5 5 5 5 5 4 4 4 4 4 4 4 4 4 4 5 5 5 5 5 5 5 5 5 4 4 4 4 4 4 4 4 4 4 5 5 5 5 5 5 5 5 5 5 5 5 5 5 5 4 4 4 4 4 4 4 4 4 4 5 5 5 5 5 5 5 5 5 5 5 5 5 5 5 5 5 5 9 9 9 9 9 9 9 8 8 8 8 8 8 8 8 8 8 5 5 5 5 5 5 5 5 5 5 5 5 4 4 4 4 4 4 4 4 4 4 5 5 5 5 5 5 5 5 5 5 5 5 8 8 8 8 8 8 8 8 8 8 8 8 8 8 5 5 5 5 5 5 5 5 5 5 5 5 4 4 4 4 4 4 4 4 4 4 5 5 5 5 5 5 5 5 5 5 5 5 8 8 8 8 8 8 8 8 8 8 8 8 8 8 5 5 5 5 5 5 5 5 5 5 5 5 4 4 4 4 4 4 4 4 4 4 5 5 5 5 5 5 5 5 5 5 5 5 8 8 8 8 8 8 8 8 8 8 8 8 8 8 5 5 5 5 5 5 5 5 5 5 5 5 4 4 4 4 4 4 4 4 4 4 4 4 4 4 4 4 4 3 3 3 3 3 3 3 5 5 5 5 5 5 5 5 5 5 5 5 5 5 5 5 5 5 5 5 5 5 5 5 8 8 8 8 8 8 8 8 8 8 8 8 8 8 5 5 5 5 5 5 5 5 5 5 5 5 8 8 8 8 8 8 8 5 5 5 5 5 5 8 8 8 8 8 8 8 8 8 8 8 8 8 8 8 8 8 8 8 8 8 8 8 5 5 5 5 5 5 5 5 5 5 5 5 5 5 5 5 5 5 5 5 5 5 5 5 5 5 5 5 5 5 5 5 5 5 5 5 5 5 5 5 5 5 5 5 5 5 5 5 5 5 5 5 5 5 5 5 5 5 5 5 5 5 5 5 5 5 5 5 5 7 7 7 7 7 7 7 7 7 7 7 7 7 7 7 7 7 7 7 7 7 7 7 6 6 6 6 6 6 6 6 6 6 6 6 6 6 6 6 6 6 6 6 6 6 6 6 6 6 6 6 6 6 6 6 6 6 6 6 6 6 6 6 6 6 6 6 6 6 6 0 0 0 5 5 5 5 5 5 5 5 5 5 5 5 5 5 5 5 5 5 5 5 5 5 5 5 5 5 5 5 5 5 6 6 6 6 6 6 6 6 6 6 5 5 5 5 5 5 5 5 5 5 5 5 5 5 5 6 6 6 6 6 6 6 6 6 6 5 5 5 5 5 5 5 5 5 5 5 5 5 5 5 6 6 6 6 6 6 6 6 6 6 5 5 5 5 5 5 5 5 5 5 5 5 5 5 5 6 6 6 6 6 6 6 6 6 6 5 5 5 5 5 5 5 5 5 5 5 5 5 5 5 6 6 6 6 6 6 6 6 6 6 5 5 5 5 5 5 5 5 5 5 5 5 5 5 5 5 5 5 5 5 5 5 5 5 5 5 5 5 5 5 6 6 6 6 6 6 6 6 6 6 5 5 5 5 5 5 5 5 5 6 6 6 6 6 6 6 6 6 6 5 5 5 5 5 5 5 5 5 5 5 5 5 5 5 6 6 6 6 6 6 6 6 6 6 5 5 5 5 5 5 5 5 5 5 5 5 5 5 5 6 6 6 6 6 6 6 6 6 6 5 5 5 5 5 5 5 5 5 5 5 5 5 5 5 5 5 5 5 5 5 5 5 5 5 5 5 6 6 6 6 6 6 6 6 6 6 6 6 6 6 6 6 6 5 5 5 5 5 5 5 5 5 5 5 5 5 5 5 5 5 5 5 5 5 5 5 5 5 5 5 5 5 5 7 7 7 7 7 7 7 7 7 7 5 5 5 5 5 5 5 5 5 7 7 7 7 7 7 7 7 7 7 5 5 5 5 5 5 5 5 5 5 5 5 5 5 5 7 7 7 7 7 7 7 7 7 7 5 5 5 5 5 5 5 5 5 5 5 5 5 5 5 7 7 7 7 7 7 7 7 7 7 7 7 7 7 7 7 7 5 5 5 5 5 5 5 5 5 8 8 8 8 8 8 8 8 8 8 5 5 5 5 5 5 5 5 5 5 5 5 5 5 5 5 5 5 8 8 8 8 8 8 8 8 8 8 5 5 5 5 5 5 5 5 5 5 5 5 5 5 5 8 8 8 8 8 8 8 8 8 8 5 5 5 5 5 5 5 5 5 5 5 5 5 5 5 8 8 8 8 8 8 8 8 8 8 5 5 5 5 5 5 5 5 5 5 5 5 5 5 5 5 5 5 5 5 5 5 5 5 5 5 5 3 3 3 3 3 3 3 3 3 3 5 5 5 5 5 5 5 5 5 3 3 3 3 3 3 3 3 3 3 5 5 5 5 5 5 5 5 5 3 3 3 3 3 3 3 3 3 3 5 5 5 5 5 5 5 5 5 3 3 3 3 3 3 3 3 3 3 5 5 5 5 5 5 5 5 5 3 3 3 3 3 3 3 3 3 3 5 5 5 5 5 5 5 5 5 3 3 3 3 3 3 3 3 3 3 5 5 5 5 5 5 5 5 5 3 3 3 3 3 3 3 3 3 3 5 5 5 5 5 5 5 5 5 3 3 3 3 3 3 3 3 3 3 5 5 5 5 5 5 5 5 5 3 3 3 3 3 3 3 3 3 3 3 3 3 3 3 3 3 2 2 2 2 2 2 2 5 5 5 5 5 5 5 5 5 2 2 2 2 2 2 2 2 2 2 5 5 5 5 5 5 5 5 5 2 2 2 2 2 2 2 2 2 2 5 5 5 5 5 5 5 5 5 2 2 2 2 2 2 2 2 2 2 5 5 5 5 5 5 5 5 5 2 2 2 2 2 2 2 2 2 2 2 2 2 2 2 2 2 1 1 1 1 1 1 1 5 5 5 5 5 5 5 5 5 1 1 1 1 1 1 1 1 1 1 5 5 5 5 5 5 5 5 5 1 1 1 1 1 1 1 1 1 1 5 5 5 5 5 5 5 5 5 1 1 1 1 1 1 1 1 1 1 5 5 5 5 5 5 5 5 5 1 1 1 1 1 1 1 1 1 1 5 5 5 5 5 5 5 5 5 1 1 1 1 1 1 1 1 1 1 5 5 5 5 5 5 5 5 5 1 1 1 1 1 1 1 1 1 1 5 5 5 5 5 5 5 5 5 1 1 1 1 1 1 1 1 1 1 5 5 5 5 5 5 5 5 5 5 5 5 5 5 5 5 5 5 0 0 0 0 0 0 0 0 0 0 0 0 0 0 0 0 0 0 0 0 0 0 0 0 0 0 0 0 
        </DataArray>
      </CellData>
    </Piece>
  </UnstructuredGrid>
</VTKFile>
