NodeID, DISPLACEMENT_X1, DISPLACEMENT_Y1, DISPLACEMENT_Z1, STRESS_XX, STRESS_XY, STRESS_XZ, STRESS_YY, STRESS_YZ, STRESS_ZZ, STRAIN_XX, STRAIN_XY, STRAIN_XZ, STRAIN_YY, STRAIN_YZ, STRAIN_ZZ
0, 0.000000000000e+00, 0.000000000000e+00, 0.000000000000e+00, -6.376500000000e+04, 3.840003743906e-11, -1.704229806733e-11, -6.376500000001e+04, -6.167484124990e-11, -2.550600000000e+05, -1.408169895093e-16, 4.608004492687e-18, -2.045075768080e-18, -2.916218867056e-16, -7.400980949988e-18, -1.147770000000e-02
1, 6.833743976639e-17, 0.000000000000e+00, 0.000000000000e+00, -6.376500000000e+04, -1.174435931265e-09, -1.487901351792e-09, -6.376500000001e+04, 1.272242853379e-10, -2.550600000000e+05, 3.148578009592e-17, -1.409323117518e-16, -1.785481622150e-16, -2.947822810333e-16, 1.526691424055e-17, -1.147770000000e-02
2, -1.510665277179e-17, 0.000000000000e+00, 0.000000000000e+00, -6.376500000000e+04, 3.162928861551e-10, 2.772263600384e-10, -6.376500000000e+04, 1.510101546586e-10, -2.550600000000e+05, 1.342628186383e-16, 3.795514633861e-17, 3.326716320460e-17, -2.441597584699e-16, 1.812121855904e-17, -1.147770000000e-02
3, -1.144425105025e-16, 0.000000000000e+00, 0.000000000000e+00, -6.376500000000e+04, 2.343684338774e-09, 2.139341516247e-09, -6.376500000000e+04, -4.167892773495e-11, -2.550600000000e+05, 6.385490686904e-18, 2.812421206529e-16, 2.567209819496e-16, -2.433041288992e-16, -5.001471328195e-18, -1.147770000000e-02
4, 0.000000000000e+00, 0.000000000000e+00, 0.000000000000e+00, -6.376500000001e+04, -2.313864012964e-11, -1.633808100086e-10, -6.376500000001e+04, 8.942422589834e-12, -2.550600000000e+05, -2.034511893329e-16, -2.776636815556e-18, -1.960569720103e-17, -2.706827123315e-16, 1.073090710780e-18, -1.147770000000e-02
5, 0.000000000000e+00, 2.189059534285e-16, 0.000000000000e+00, -6.376500000000e+04, -3.863015144584e-09, 8.811586937530e-11, -6.376500000000e+04, -4.014684907880e-09, -2.550600000000e+05, -9.014858416279e-17, -4.635618173500e-16, 1.057390432504e-17, -1.520425262354e-16, -4.817621889456e-16, -1.147770000000e-02
6, 6.007704875984e-17, 2.255333231390e-16, 0.000000000000e+00, -6.376500000000e+04, 8.363837341053e-11, -1.300183677574e-09, -6.376500000000e+04, -4.077259787625e-09, -2.550600000000e+05, 1.766671727562e-17, 1.003660480926e-17, -1.560220413089e-16, -1.446611450541e-16, -4.892711745150e-16, -1.147770000000e-02
7, -2.899454264189e-17, 1.817814897628e-16, 0.000000000000e+00, -6.376500000000e+04, 6.260320580745e-10, 2.867653182242e-10, -6.376500000000e+04, -3.368242039654e-09, -2.550600000000e+05, 1.491766496590e-16, 7.512384696894e-17, 3.441183818690e-17, -1.397024445621e-16, -4.041890447584e-16, -1.147770000000e-02
8, -1.259570053197e-16, 1.758027934978e-16, 0.000000000000e+00, -6.376500000000e+04, 2.460343585778e-10, 2.070536184261e-09, -6.376500000000e+04, -3.428384985241e-09, -2.550600000000e+05, -2.053488367251e-17, 2.952412302934e-17, 2.484643421113e-16, -1.286828945474e-16, -4.114061982289e-16, -1.147770000000e-02
9, 0.000000000000e+00, 1.738898245184e-16, 0.000000000000e+00, -6.376500000001e+04, 3.085617132995e-09, -1.396321782492e-10, -6.376500000000e+04, -3.448773181193e-09, -2.550600000000e+05, -2.024683823614e-16, 3.702740559593e-16, -1.675586138991e-17, -8.389021920143e-17, -4.138527817432e-16, -1.147770000000e-02
10, 0.000000000000e+00, 1.837534314932e-16, 0.000000000000e+00, -6.376500000000e+04, -3.369155752370e-09, -9.621164367229e-11, -6.376499999999e+04, -3.414638752682e-09, -2.550600000000e+05, -4.624393681351e-17, -4.042986902843e-16, -1.154539724067e-17, 1.604616083769e-16, -4.097566503218e-16, -1.147770000000e-02
11, 5.220521753923e-17, 1.816331457783e-16, 0.000000000000e+00, -6.376500000000e+04, 2.037342050514e-10, -1.130412374061e-09, -6.376499999999e+04, -3.380342136785e-09, -2.550600000000e+05, 2.307336355403e-17, 2.444810460616e-17, -1.356494848873e-16, 1.692067166439e-16, -4.056410564142e-16, -1.147770000000e-02
12, -7.617836527245e-17, 1.661774623601e-16, 0.000000000000e+00, -6.376499999999e+04, 3.745161628688e-10, 9.216816789082e-10, -6.376499999999e+04, -3.035560791950e-09, -2.550600000000e+05, 1.499733576125e-16, 4.494193954426e-17, 1.106018014690e-16, 1.408125182720e-16, -3.642672950340e-16, -1.147770000000e-02
13, -1.397984362775e-16, 1.636565590395e-16, 0.000000000000e+00, -6.376500000000e+04, 2.051264402876e-10, 1.953153236624e-09, -6.376500000000e+04, -3.229570946824e-09, -2.550600000000e+05, -5.462233804713e-17, 2.461517283451e-17, 2.343783883949e-16, 1.151306106599e-16, -3.875485136189e-16, -1.147770000000e-02
14, 0.000000000000e+00, 1.324990670713e-16, 0.000000000000e+00, -6.376500000000e+04, 2.675274334749e-09, -2.709390108948e-10, -6.376500000000e+04, -3.057467443027e-09, -2.550600000000e+05, -1.906048294253e-16, 3.210329201698e-16, -3.251268130738e-17, 7.242381308295e-17, -3.668960931633e-16, -1.147770000000e-02
15, 0.000000000000e+00, 3.230322147064e-17, 0.000000000000e+00, -6.376500000000e+04, -2.093003038269e-10, -3.119855832770e-11, -6.376500000000e+04, -6.246361109288e-10, -2.550600000000e+05, -2.624203901057e-17, -2.511603645922e-17, -3.743826999324e-18, 1.226846276835e-16, -7.495633331145e-17, -1.147770000000e-02
16, 3.734808760304e-17, 6.178198325495e-18, 0.000000000000e+00, -6.376500000000e+04, 3.010842606650e-10, -8.090150526186e-10, -6.376500000000e+04, -4.968202235861e-10, -2.550600000000e+05, 3.326427935981e-17, 3.613011127980e-17, -9.708180631424e-17, 1.230600149365e-16, -5.961842683033e-17, -1.147770000000e-02
17, -6.402569801518e-17, 1.150152288453e-17, 0.000000000000e+00, -6.376500000000e+04, -2.060043223770e-10, 7.209074769420e-10, -6.376500000000e+04, -4.717290251851e-10, -2.550600000000e+05, 1.157441815890e-16, -2.472051868523e-17, 8.650889723304e-17, 1.144393077687e-16, -5.660748302222e-17, -1.147770000000e-02
18, -1.614523203156e-16, 1.774024543643e-17, 0.000000000000e+00, -6.376500000000e+04, -1.390866454490e-10, 2.332152094456e-09, -6.376500000000e+04, -5.942870187335e-10, -2.550600000000e+05, -2.105390680241e-17, -1.669039745388e-17, 2.798582513347e-16, 1.408743053274e-16, -7.131444224802e-17, -1.147770000000e-02
19, 0.000000000000e+00, 4.173697359527e-17, 0.000000000000e+00, -6.376500000001e+04, 4.630633481193e-10, -6.053201505908e-11, -6.376500000000e+04, -7.168737913067e-10, -2.550600000000e+05, -2.296670692822e-16, 5.556760177431e-17, -7.263841807090e-18, 1.439143268875e-16, -8.602485495680e-17, -1.147770000000e-02
20, 0.000000000000e+00, 0.000000000000e+00, 0.000000000000e+00, -6.376500000000e+04, 2.773684755961e-11, -1.442627308769e-11, -6.376500000000e+04, -1.070479503568e-10, -2.550600000000e+05, -3.313644647069e-17, 3.328421707153e-18, -1.731152770522e-18, 2.941446705560e-17, -1.284575404281e-17, -1.147770000000e-02
21, 3.166506874743e-17, 0.000000000000e+00, 0.000000000000e+00, -6.376500000000e+04, 3.622576145605e-10, -9.039777186670e-10, -6.376500000000e+04, -1.583525049005e-10, -2.550600000000e+05, 4.597836205503e-17, 4.347091374726e-17, -1.084773262400e-16, -4.288920191413e-19, -1.900230058806e-17, -1.147770000000e-02
22, -7.360236279973e-17, 0.000000000000e+00, 0.000000000000e+00, -6.376500000000e+04, -1.304257887092e-09, 8.747827539649e-10, -6.376500000000e+04, -7.173616685338e-11, -2.550600000000e+05, 9.856774213231e-17, -1.565109464510e-16, 1.049739304758e-16, 1.306099551252e-17, -8.608340022406e-18, -1.147770000000e-02
23, -1.358812987458e-16, 0.000000000000e+00, 0.000000000000e+00, -6.376500000000e+04, -2.762722235065e-09, 1.879784997591e-09, -6.376500000000e+04, -9.307288148217e-11, -2.550600000000e+05, -2.032612028718e-17, -3.315266682078e-16, 2.255741997109e-16, -1.133991398060e-17, -1.116874577786e-17, -1.147770000000e-02
24, 0.000000000000e+00, 0.000000000000e+00, 0.000000000000e+00, -6.376500000001e+04, -3.752125546985e-11, -2.424696557895e-10, -6.376500000000e+04, -2.576389235006e-10, -2.550600000000e+05, -2.153035213296e-16, -4.502550656382e-18, -2.909635869474e-17, 5.786870793421e-18, -3.091667082008e-17, -1.147770000000e-02
25, 0.000000000000e+00, 0.000000000000e+00, -2.510746875000e-02, -4.782375000000e+04, 3.848866147266e-11, 2.055998355577e-09, -4.782375000001e+04, 2.017439920264e-09, -1.912950000000e+05, -1.043082390531e-16, 4.618639376719e-18, 2.467198026692e-16, -3.002180179259e-16, 2.420927904317e-16, -8.608275000000e-03
26, 8.602875383665e-17, 0.000000000000e+00, -2.510746875000e-02, -4.782375000000e+04, -1.494940852556e-09, 2.335292036197e-10, -4.782375000001e+04, 2.915450460187e-09, -1.912950000000e+05, 6.504624007693e-18, -1.793929023068e-16, 2.802350443436e-17, -2.766682204603e-16, 3.498540552225e-16, -8.608275000000e-03
27, -1.635642066720e-17, 0.000000000000e+00, -2.510746875000e-02, -4.782375000000e+04, 3.910540307199e-10, -4.842094805780e-10, -4.782375000000e+04, 2.151580068850e-09, -1.912950000000e+05, 1.149703697199e-16, 4.692648368638e-17, -5.810513766936e-17, -2.473919221952e-16, 2.581896082620e-16, -8.608275000000e-03
28, -9.020995272337e-17, 0.000000000000e+00, -2.510746875000e-02, -4.782375000000e+04, 1.878096308371e-09, -2.120171029633e-09, -4.782375000001e+04, -3.223410017863e-11, -1.912950000000e+05, -3.490092016333e-18, 2.253715570045e-16, -2.544205235559e-16, -2.395981180755e-16, -3.868092021436e-18, -8.608275000000e-03
29, 0.000000000000e+00, 0.000000000000e+00, -2.510746875000e-02, -4.782375000000e+04, 2.964723551519e-11, 9.795483557858e-10, -4.782375000001e+04, 1.344102814939e-09, -1.912950000000e+05, -1.316615643694e-16, 3.557668261823e-18, 1.175458026943e-16, -2.169047128032e-16, 1.612923377927e-16, -8.608275000000e-03
30, 0.000000000000e+00, 2.151656904312e-16, -2.510746875000e-02, -4.782375000000e+04, -3.693896578863e-09, 2.317365795255e-09, -4.782375000000e+04, 9.328863907005e-10, -1.912950000000e+05, -8.499255612319e-17, -4.432675894636e-16, 2.780838954306e-16, -1.195499186579e-16, 1.119463668841e-16, -8.608275000000e-03
31, 7.740328194697e-17, 1.930852334971e-16, -2.510746875000e-02, -4.782375000000e+04, 4.567540333957e-10, 7.407305591728e-10, -4.782375000000e+04, 1.017534461951e-09, -1.912950000000e+05, 1.156561003879e-17, 5.481048400748e-17, 8.888766710074e-17, -1.148922909323e-16, 1.221041354342e-16, -8.608275000000e-03
32, -1.645052312695e-17, 1.807508754924e-16, -2.510746875000e-02, -4.782375000000e+04, 1.872868532221e-10, -1.425339990734e-09, -4.782375000000e+04, 6.660958255684e-10, -1.912950000000e+05, 1.048899498656e-16, 2.247442238665e-17, -1.710407988881e-16, -1.140429643223e-16, 7.993149906820e-17, -8.608275000000e-03
33, -9.882029384608e-17, 1.816461825098e-16, -2.510746875000e-02, -4.782375000000e+04, 1.194625514061e-12, -1.928632791918e-09, -4.782375000000e+04, 3.104397760350e-10, -1.912950000000e+05, -4.303116918587e-18, 1.433550616873e-19, -2.314359350302e-16, -1.229508702563e-16, 3.725277312420e-17, -8.608275000000e-03
34, 0.000000000000e+00, 1.678430867469e-16, -2.510746875000e-02, -4.782375000000e+04, 3.342178543368e-09, 9.688547836430e-10, -4.782375000000e+04, -2.706644590766e-10, -1.912950000000e+05, -1.393123298484e-16, 4.010614252041e-16, 1.162625740372e-16, -1.546335766530e-16, -3.247973508919e-17, -8.608275000000e-03
35, 0.000000000000e+00, 1.670765896124e-16, -2.510746875000e-02, -4.782375000000e+04, -3.093010443791e-09, 2.805781379559e-09, -4.782375000000e+04, 7.047702627565e-11, -1.912950000000e+05, -3.270071732870e-17, -3.711612532549e-16, 3.366937655471e-16, 1.293438622589e-16, 8.457243153078e-18, -8.608275000000e-03
36, 5.289597410535e-17, 1.577563088395e-16, -2.510746875000e-02, -4.782375000000e+04, 1.188529090159e-10, -6.418379358101e-10, -4.782375000000e+04, -3.972344249647e-10, -1.912950000000e+05, 1.324149321256e-17, 1.426234908191e-17, -7.702055229721e-17, 1.027406488549e-16, -4.766813099576e-17, -8.608275000000e-03
37, -3.141976508052e-17, 1.564604673577e-16, -2.510746875000e-02, -4.782375000000e+04, 8.764116271489e-11, -1.108819425961e-09, -4.782375000000e+04, -8.755509361765e-10, -1.912950000000e+05, 8.614235776307e-17, 1.051693952579e-17, -1.330583311153e-16, 8.473447943774e-17, -1.050661123412e-16, -8.608275000000e-03
38, -1.027563807247e-16, 1.540714731377e-16, -2.510746875000e-02, -4.782375000000e+04, -5.925777166860e-11, -2.400400503887e-09, -4.782375000000e+04, -1.332901251387e-09, -1.912950000000e+05, -3.263895903284e-17, -7.110932600232e-18, -2.880480604665e-16, 9.542167247887e-17, -1.599481501664e-16, -8.608275000000e-03
39, 0.000000000000e+00, 1.783418774159e-16, -2.510746875000e-02, -4.782375000000e+04, 3.094056464813e-09, 2.971419934292e-09, -4.782375000000e+04, -7.005274968712e-10, -1.912950000000e+05, -1.007890665569e-16, 3.712867757776e-16, 3.565703921150e-16, 1.030267702867e-16, -8.406329962455e-17, -8.608275000000e-03
40, 0.000000000000e+00, 1.065957298478e-17, -2.510746875000e-02, -4.782375000000e+04, -4.041178287110e-10, 5.664152403341e-10, -4.782375000000e+04, -1.188470742145e-09, -1.912950000000e+05, -4.745893690279e-17, -4.849413944532e-17, 6.796982884009e-17, 1.354834979634e-16, -1.426164890574e-16, -8.608275000000e-03
41, 5.819286384472e-17, 2.499372005591e-17, -2.510746875000e-02, -4.782375000000e+04, -3.637522433904e-10, -2.138970633419e-10, -4.782375000000e+04, -1.660231589580e-09, -1.912950000000e+05, 1.459357753839e-17, -4.365026920685e-17, -2.566764760103e-17, 1.126829987631e-16, -1.992277907496e-16, -8.608275000000e-03
42, -4.236035427713e-17, 3.731507654928e-17, -2.510746875000e-02, -4.782375000000e+04, -5.005129171103e-12, -1.686280896876e-09, -4.782375000000e+04, -1.717127287693e-09, -1.912950000000e+05, 9.820963136562e-17, -6.006155005324e-19, -2.023537076251e-16, 9.966812707202e-17, -2.060552745232e-16, -8.608275000000e-03
43, -1.072205185632e-16, 5.028091707336e-17, -2.510746875000e-02, -4.782375000000e+04, -7.904987435847e-12, -2.331574434142e-09, -4.782375000000e+04, -1.760839851927e-09, -1.912950000000e+05, -2.922806612933e-17, -9.485984923016e-19, -2.797889320970e-16, 1.035822529843e-16, -2.113007822312e-16, -8.608275000000e-03
44, 0.000000000000e+00, 4.757954133308e-17, -2.510746875000e-02, -4.782375000000e+04, 9.796940109487e-10, 3.825795755313e-09, -4.782375000000e+04, -2.158951169253e-09, -1.912950000000e+05, -1.196913486466e-16, 1.175632813138e-16, 4.590954906376e-16, 1.320218485431e-16, -2.590741403103e-16, -8.608275000000e-03
45, 0.000000000000e+00, 0.000000000000e+00, -2.510746875000e-02, -4.782375000000e+04, -9.133483281937e-11, 8.624459212774e-10, -4.782375000000e+04, -2.523519895046e-10, -1.912950000000e+05, -9.021097479526e-17, -1.096017993832e-17, 1.034935105533e-16, 9.663134797046e-18, -3.028223874056e-17, -8.608275000000e-03
46, 7.111509742159e-17, 0.000000000000e+00, -2.510746875000e-02, -4.782375000000e+04, 9.912202246151e-10, -9.919367085157e-10, -4.782375000000e+04, 2.095194487276e-10, -1.912950000000e+05, 2.691949885977e-17, 1.189464269538e-16, -1.190324050219e-16, 7.560550708899e-17, 2.514233384731e-17, -8.608275000000e-03
47, -3.927689456722e-17, 0.000000000000e+00, -2.510746875000e-02, -4.782375000000e+04, -9.255027044662e-10, -1.477958423916e-09, -4.782375000000e+04, 1.996094649690e-09, -1.912950000000e+05, 1.211531049900e-16, -1.110603245359e-16, -1.773550108699e-16, 1.066726378202e-16, 2.395313579629e-16, -8.608275000000e-03
48, -1.139338409758e-16, 0.000000000000e+00, -2.510746875000e-02, -4.782375000000e+04, -1.965492072261e-09, -2.059560922324e-09, -4.782375000000e+04, 5.223095526677e-09, -1.912950000000e+05, -4.491014886919e-17, -2.358590486713e-16, -2.471473106789e-16, 8.749200766177e-17, 6.267714632013e-16, -8.608275000000e-03
49, 0.000000000000e+00, 0.000000000000e+00, -2.510746875000e-02, -4.782375000000e+04, 2.344791666012e-11, 5.469513087043e-09, -4.782375000000e+04, 5.298842620248e-09, -1.912950000000e+05, -1.161139351658e-16, 2.813749999214e-18, 6.563415704452e-16, 5.607462844959e-17, 6.358611144298e-16, -8.608275000000e-03
50, 0.000000000000e+00, 0.000000000000e+00, -4.304137500000e-02, -3.188250000000e+04, 3.917321605531e-11, -1.767283022914e-09, -3.188250000001e+04, -9.843756808333e-10, -1.275300000000e+05, -6.085877645237e-17, 4.700785926637e-18, -2.120739627496e-16, -1.715826048290e-16, -1.181250817000e-16, -5.738850000000e-03
51, 3.330362623304e-17, 0.000000000000e+00, -4.304137500000e-02, -3.188250000000e+04, -6.420426703881e-10, 1.403331839253e-09, -3.188250000000e+04, -2.357840966626e-09, -1.275300000000e+05, 2.163238307223e-17, -7.704512044657e-17, 1.683998207103e-16, -1.518498867731e-16, -2.829409159951e-16, -5.738850000000e-03
52, 1.068151944421e-18, 0.000000000000e+00, -4.304137500000e-02, -3.188250000000e+04, -7.995126416546e-11, -7.652649380825e-10, -3.188250000000e+04, -9.905983999157e-10, -1.275300000000e+05, 1.617693500173e-18, -9.594151699855e-18, -9.183179256990e-17, -1.938092919965e-16, -1.188718079899e-16, -5.738850000000e-03
53, -2.607073403241e-17, 0.000000000000e+00, -4.304137500000e-02, -3.188250000000e+04, -1.377583504366e-10, -1.565406872872e-09, -3.188250000000e+04, -1.461904893713e-09, -1.275300000000e+05, 4.841769054004e-18, -1.653100205239e-17, -1.878488247446e-16, -1.526948742256e-16, -1.754285872455e-16, -5.738850000000e-03
54, 0.000000000000e+00, 0.000000000000e+00, -4.304137500000e-02, -3.188250000000e+04, -8.602008409474e-11, 4.012285426819e-09, -3.188250000000e+04, -2.449271674668e-09, -1.275300000000e+05, 4.675085199555e-18, -1.032241009137e-17, 4.814742512183e-16, -1.912136323933e-16, -2.939126009601e-16, -5.738850000000e-03
55, 0.000000000000e+00, 1.325141860589e-16, -4.304137500000e-02, -3.188250000000e+04, -2.257215424629e-09, -1.143772117973e-09, -3.188250000000e+04, 1.999384970537e-09, -1.275300000000e+05, -3.533266233603e-17, -2.708658509555e-16, -1.372526541568e-16, -5.968942416638e-17, 2.399261964644e-16, -5.738850000000e-03
56, 4.142926054712e-17, 1.212160344369e-16, -4.304137500000e-02, -3.188250000000e+04, -3.261103639875e-11, 1.178622504320e-09, -3.188250000000e+04, 2.601371651428e-09, -1.275300000000e+05, 1.485778105492e-17, -3.913324367850e-18, 1.414347005184e-16, -6.866520710790e-17, 3.121645981714e-16, -5.738850000000e-03
57, 1.230360835620e-18, 1.308292035520e-16, -4.304137500000e-02, -3.188250000000e+04, 5.322060425102e-11, -1.750236406050e-10, -3.188250000000e+04, 1.937727090374e-09, -1.275300000000e+05, -1.840421274353e-18, 6.386472510123e-18, -2.100283687260e-17, -7.720987309941e-17, 2.325272508449e-16, -5.738850000000e-03
58, -3.606509330992e-18, 1.244666679737e-16, -4.304137500000e-02, -3.188250000000e+04, 8.726909093298e-11, -1.986048700823e-09, -3.188250000000e+04, 8.481175610893e-10, -1.275300000000e+05, -2.453080033739e-17, 1.047229091196e-17, -2.383258440988e-16, -1.068770403196e-16, 1.017741073307e-16, -5.738850000000e-03
59, 0.000000000000e+00, 1.345681280716e-16, -4.304137500000e-02, -3.188250000000e+04, 2.554806733662e-09, 2.560503785623e-09, -3.188250000000e+04, 1.016520255661e-09, -1.275300000000e+05, 5.835954344968e-17, 3.065768080394e-16, 3.072604542748e-16, -9.629369607902e-17, 1.219824306793e-16, -5.738850000000e-03
60, 0.000000000000e+00, 1.231560159616e-16, -4.304137500000e-02, -3.188250000000e+04, -2.180283886948e-09, 2.940891168435e-10, -3.188250000000e+04, 6.585467579979e-10, -1.275300000000e+05, -4.243847821551e-17, -2.616340664338e-16, 3.529069402122e-17, 2.652491339924e-17, 7.902561095975e-17, -5.738850000000e-03
61, 4.812875852292e-17, 1.107235110170e-16, -4.304137500000e-02, -3.188250000000e+04, -1.340706456888e-10, 1.422564989338e-09, -3.188250000000e+04, 4.476795842543e-10, -1.275300000000e+05, 1.265995236227e-17, -1.608847748265e-17, 1.707077987206e-16, 1.094063162109e-17, 5.372155011052e-17, -5.738850000000e-03
62, 1.400037300968e-17, 1.407448628218e-16, -4.304137500000e-02, -3.188250000000e+04, -2.600979324719e-10, -1.285156316316e-09, -3.188250000000e+04, -5.669446838651e-10, -1.275300000000e+05, -1.587800813635e-18, -3.121175189663e-17, -1.542187579580e-16, 1.794457074753e-17, -6.803336206381e-17, -5.738850000000e-03
63, -1.818919365541e-17, 1.607586521629e-16, -4.304137500000e-02, -3.188250000000e+04, -2.572586649911e-10, -2.315453472956e-09, -3.188250000000e+04, 2.193129610350e-10, -1.275300000000e+05, 3.604630317876e-18, -3.087103979893e-17, -2.778544167548e-16, 2.220082249519e-17, 2.631755532419e-17, -5.738850000000e-03
64, 0.000000000000e+00, 1.733555177374e-16, -4.304137500000e-02, -3.188250000000e+04, 3.162767238781e-09, 2.543765855662e-09, -3.188250000000e+04, -3.693592536368e-10, -1.275300000000e+05, 1.308491448249e-17, 3.795320686537e-16, 3.052519026795e-16, 1.809536772027e-17, -4.432311043641e-17, -5.738850000000e-03
65, 0.000000000000e+00, 4.444336744314e-17, -4.304137500000e-02, -3.188250000000e+04, -1.104835171966e-09, -2.064974876546e-09, -3.188250000000e+04, -2.202631067460e-09, -1.275300000000e+05, -5.645541965106e-17, -1.325802206359e-16, -2.477969851855e-16, 7.501787811927e-17, -2.643157280952e-16, -5.738850000000e-03
66, 4.889229135728e-17, 5.442845685667e-17, -4.304137500000e-02, -3.188250000000e+04, -1.431238370597e-10, 7.584078758256e-10, -3.188250000000e+04, -1.910530683139e-09, -1.275300000000e+05, 3.395675037742e-18, -1.717486044717e-17, 9.100894509907e-17, 9.033411111393e-17, -2.292636819767e-16, -5.738850000000e-03
67, 2.200562067185e-17, 7.446557885767e-17, -4.304137500000e-02, -3.188250000000e+04, -1.492589541522e-10, -1.022457162972e-09, -3.188250000000e+04, -1.830121462547e-09, -1.275300000000e+05, 9.623126147148e-18, -1.791107449827e-17, -1.226948595566e-16, 1.069545710457e-16, -2.196145755057e-16, -5.738850000000e-03
68, 2.524718875627e-18, 9.670012091776e-17, -4.304137500000e-02, -3.188250000000e+04, 1.070857253513e-11, -2.730056942875e-09, -3.188250000000e+04, -2.083811744845e-09, -1.275300000000e+05, -1.664532390125e-19, 1.285028704216e-18, -3.276068331451e-16, 8.439079144113e-17, -2.500574093814e-16, -5.738850000000e-03
69, 0.000000000000e+00, 8.841807612070e-17, -4.304137500000e-02, -3.188250000000e+04, 1.704209590171e-09, 6.840532582172e-09, -3.188250000000e+04, -2.080223952447e-09, -1.275300000000e+05, 3.075072375931e-17, 2.045051508205e-16, 8.208639098606e-16, 1.166291958971e-16, -2.496268742937e-16, -5.738850000000e-03
70, 0.000000000000e+00, 0.000000000000e+00, -4.304137500000e-02, -3.188250000000e+04, 1.660144359919e-11, -3.630972722648e-09, -3.188250000000e+04, 2.875323922182e-09, -1.275300000000e+05, -3.947775783524e-17, 1.992173231903e-18, -4.357167267177e-16, 8.787587012478e-17, 3.450388706618e-16, -5.738850000000e-03
71, 5.194253213812e-17, 0.000000000000e+00, -4.304137500000e-02, -3.188250000000e+04, 5.869549011499e-10, 1.252056915742e-09, -3.188250000000e+04, 1.629833127940e-09, -1.275300000000e+05, -1.903428348784e-17, 7.043458813799e-17, 1.502468298891e-16, 8.663081551885e-17, 1.955799753528e-16, -5.738850000000e-03
72, 3.372290516771e-17, 0.000000000000e+00, -4.304137500000e-02, -3.188250000000e+04, 1.709483879651e-10, -6.263446967430e-10, -3.188250000000e+04, 3.479856985628e-09, -1.275300000000e+05, 1.701006601605e-17, 2.051380655581e-17, -7.516136360916e-17, 9.843075460892e-17, 4.175828382754e-16, -5.738850000000e-03
73, -1.392428547610e-17, 0.000000000000e+00, -4.304137500000e-02, -3.188250000000e+04, -1.896635823203e-10, -2.769131621783e-09, -3.188250000000e+04, 5.984420529857e-09, -1.275300000000e+05, 1.116790545028e-17, -2.275962987844e-17, -3.322957946139e-16, 1.532657269921e-16, 7.181304635828e-16, -5.738850000000e-03
74, 0.000000000000e+00, 0.000000000000e+00, -4.304137500000e-02, -3.188250000000e+04, 4.307176277387e-11, 6.418302043714e-09, -3.188250000000e+04, 6.341796431347e-09, -1.275300000000e+05, 2.119038187825e-17, 5.168611532865e-18, 7.701962452457e-16, 1.143518973165e-16, 7.610155717616e-16, -5.738850000000e-03
75, 0.000000000000e+00, 0.000000000000e+00, -5.380171875000e-02, -1.594125000000e+04, -7.347021270410e-11, -6.781989976095e-09, -1.594125000000e+04, -6.402687812488e-09, -6.376500000000e+04, 1.926074891201e-16, -8.816425524492e-18, -8.138387971314e-16, 1.540721086369e-16, -7.683225374986e-16, -2.869425000000e-03
76, -9.507118862951e-17, 0.000000000000e+00, -5.380171875000e-02, -1.594125000000e+04, 1.913975170414e-09, 2.798769236314e-09, -1.594125000000e+04, -1.417287558700e-09, -6.376500000000e+04, -3.857106442020e-17, 2.296770204497e-16, 3.358523083577e-16, 1.108250863342e-16, -1.700745070440e-16, -2.869425000000e-03
77, 9.862842202775e-18, 0.000000000000e+00, -5.380171875000e-02, -1.594125000000e+04, -4.093162897184e-10, 5.910552754529e-10, -1.594125000000e+04, -2.490727698845e-09, -6.376500000000e+04, -9.490266355901e-17, -4.911795476621e-17, 7.092663305434e-17, 6.664308935425e-17, -2.988873238614e-16, -2.869425000000e-03
78, 5.748586382136e-17, 0.000000000000e+00, -5.380171875000e-02, -1.594125000000e+04, -1.449568745755e-09, -1.331032210043e-09, -1.594125000000e+04, -9.045626748676e-10, -6.376500000000e+04, -4.661969918822e-18, -1.739482494906e-16, -1.597238652052e-16, 3.803192645502e-17, -1.085475209841e-16, -2.869425000000e-03
79, 0.000000000000e+00, 0.000000000000e+00, -5.380171875000e-02, -1.594125000000e+04, -1.987035546542e-11, 3.649596566667e-09, -1.594125000000e+04, 6.792840038947e-10, -6.376499999999e+04, 8.366390667599e-17, -2.384442655851e-18, 4.379515880000e-16, 1.573056666088e-17, 8.151408046736e-17, -2.869425000000e-03
80, 0.000000000000e+00, -6.510903961181e-17, -5.380171875000e-02, -1.594125000000e+04, 1.377034233566e-09, -3.775947827102e-09, -1.594125000000e+04, 3.729594990090e-09, -6.376500000000e+04, 1.418448039550e-16, 1.652441080279e-16, -4.531137392523e-16, -5.466828663645e-17, 4.475513988109e-16, -2.869425000000e-03
81, -8.625678121898e-17, -5.755629140868e-17, -5.380171875000e-02, -1.594125000000e+04, -5.378541126396e-10, 2.860604198411e-09, -1.594125000000e+04, 4.057503595105e-09, -6.376500000000e+04, -1.669994935160e-17, -6.454249351675e-17, 3.432725038093e-16, -3.831941873565e-17, 4.869004314125e-16, -2.869425000000e-03
82, 2.414992663542e-17, -3.467862644815e-17, -5.380171875000e-02, -1.594125000000e+04, -2.142414670158e-11, 1.052313530979e-09, -1.594125000000e+04, 4.277231777579e-09, -6.376500000000e+04, -9.716473637262e-17, -2.570897604190e-18, 1.262776237175e-16, -5.576243112735e-17, 5.132678133095e-16, -2.869425000000e-03
83, 7.501714235340e-17, -2.760163911799e-17, -5.380171875000e-02, -1.594125000000e+04, 4.545776359824e-11, -1.641669411656e-09, -1.594125000000e+04, 3.545755955172e-09, -6.376500000000e+04, 7.646616861621e-18, 5.454931631788e-18, -1.970003293987e-16, -4.289616560673e-17, 4.254907146206e-16, -2.869425000000e-03
84, 0.000000000000e+00, 4.839140146651e-18, -5.380171875000e-02, -1.594125000000e+04, -1.541473368802e-10, -3.264576862820e-10, -1.594125000000e+04, 2.590183262416e-09, -6.376499999999e+04, 7.059133377015e-17, -1.849768042563e-17, -3.917492235384e-17, -3.218699746617e-17, 3.108219914900e-16, -2.869425000000e-03
85, 0.000000000000e+00, 3.459776930265e-17, -5.380171875000e-02, -1.594125000000e+04, -5.759602099938e-10, 7.162744202882e-10, -1.594125000000e+04, 1.176490686772e-09, -6.376500000000e+04, 9.179425208411e-17, -6.911522519925e-17, 8.595293043458e-17, -7.198514328954e-17, 1.411788824126e-16, -2.869425000000e-03
86, -6.933868038185e-17, 4.699682474538e-17, -5.380171875000e-02, -1.594125000000e+04, -2.858888094269e-10, 2.783698691420e-09, -1.594125000000e+04, 1.184011068273e-09, -6.376500000000e+04, -3.491496824830e-18, -3.430665713123e-17, 3.340438429704e-16, -7.485914681276e-17, 1.420813281928e-16, -2.869425000000e-03
87, 2.019026064540e-17, 7.270651287080e-17, -5.380171875000e-02, -1.594125000000e+04, -3.261874927253e-10, -6.985790079244e-11, -1.594125000000e+04, 1.316339624440e-09, -6.376500000000e+04, -9.563138525319e-17, -3.914249912704e-17, -8.382948095092e-18, -6.928524388665e-17, 1.579607549328e-16, -2.869425000000e-03
88, 8.372056915924e-17, 8.425817945108e-17, -5.380171875000e-02, -1.594125000000e+04, -5.798964639515e-11, -1.127958545858e-09, -1.594125000000e+04, 1.088471300730e-09, -6.376499999999e+04, 2.287408560387e-17, -6.958757567418e-18, -1.353550255029e-16, -8.331992818054e-17, 1.306165560876e-16, -2.869425000000e-03
89, 0.000000000000e+00, 8.694135854009e-17, -5.380171875000e-02, -1.594125000000e+04, 1.392167181327e-09, -3.283596191358e-09, -1.594125000000e+04, 1.251978818786e-09, -6.376499999999e+04, 6.070334086420e-17, 1.670600617592e-16, -3.940315429630e-16, -1.028771476612e-16, 1.502374582543e-16, -2.869425000000e-03
90, 0.000000000000e+00, 8.770105251033e-17, -5.380171875000e-02, -1.594125000000e+04, -1.532907506900e-09, -9.178631292766e-10, -1.594125000000e+04, -1.816363532394e-09, -6.376500000000e+04, 9.571463602592e-17, -1.839489008280e-16, -1.101435755132e-16, -2.120431874867e-18, -2.179636238873e-16, -2.869425000000e-03
91, -6.154377584907e-17, 8.629767130247e-17, -5.380171875000e-02, -1.594125000000e+04, -3.499034580316e-10, 2.128782562888e-09, -1.594125000000e+04, -2.446176722666e-09, -6.376500000000e+04, -1.062612180090e-17, -4.198841496380e-17, 2.554539075465e-16, 1.226456185554e-17, -2.935412067199e-16, -2.869425000000e-03
92, 3.563470565188e-17, 1.126621170783e-16, -5.380171875000e-02, -1.594125000000e+04, -9.755101445851e-11, 1.222794923837e-09, -1.594125000000e+04, -2.172773952604e-09, -6.376500000000e+04, -9.303526516055e-17, -1.170612173502e-17, 1.467353908604e-16, 4.130923763045e-17, -2.607328743125e-16, -2.869425000000e-03
93, 8.596242205286e-17, 1.167836405444e-16, -5.380171875000e-02, -1.594125000000e+04, -4.486842216098e-11, -1.985549610904e-09, -1.594125000000e+04, -1.245383910238e-09, -6.376499999999e+04, 1.712108239584e-17, -5.384210659317e-18, -2.382659533084e-16, 4.130272421213e-17, -1.494460692286e-16, -2.869425000000e-03
94, 0.000000000000e+00, 1.270952764632e-16, -5.380171875000e-02, -1.594124999999e+04, 2.311286358655e-09, -4.923525096232e-10, -1.594125000000e+04, -1.493788460851e-09, -6.376499999999e+04, 7.736597310532e-17, 2.773543630386e-16, -5.908230115478e-17, 4.039991972004e-17, -1.792546153021e-16, -2.869424999999e-03
95, 0.000000000000e+00, 0.000000000000e+00, -5.380171875000e-02, -1.594125000000e+04, 1.092140992802e-11, -1.805130103355e-09, -1.594125000000e+04, 3.320647760728e-09, -6.376499999999e+04, 9.345935453710e-17, 1.310569191362e-18, -2.166156124026e-16, 1.034756149648e-16, 3.984777312874e-16, -2.869425000000e-03
96, -3.893187509868e-17, 0.000000000000e+00, -5.380171875000e-02, -1.594125000000e+04, -1.214042034882e-09, 2.565362974816e-09, -1.594125000000e+04, 4.327563584683e-10, -6.376500000000e+04, -1.767767259617e-17, -1.456850441859e-16, 3.078435569780e-16, 9.100292105154e-17, 5.193076301620e-17, -2.869425000000e-03
97, 3.408886316501e-17, 0.000000000000e+00, -5.380171875000e-02, -1.594125000000e+04, 3.701573709419e-10, 6.570717324176e-10, -1.594125000000e+04, -3.534076094027e-10, -6.376499999999e+04, -7.787795031783e-17, 4.441888451303e-17, 7.884860789011e-17, 1.008337854128e-16, -4.240891312833e-17, -2.869425000000e-03
98, 8.795815469778e-17, 0.000000000000e+00, -5.380171875000e-02, -1.594125000000e+04, 1.332350595719e-09, -4.935596458726e-10, -1.594124999999e+04, -2.029362858273e-09, -6.376499999999e+04, -3.193120078389e-18, 1.598820714862e-16, -5.922715750471e-17, 1.317948126952e-16, -2.435235429927e-16, -2.869424999999e-03
99, 0.000000000000e+00, 0.000000000000e+00, -5.380171875000e-02, -1.594124999999e+04, -6.435668842831e-11, -1.083127644874e-09, -1.594124999999e+04, -1.661902340573e-09, -6.376499999999e+04, 1.040381314477e-16, -7.722802611397e-18, -1.299753173849e-16, 1.735978841537e-16, -1.994282808687e-16, -2.869425000000e-03
100, 0.000000000000e+00, 0.000000000000e+00, -5.738850000000e-02, 1.305426167164e-08, -3.296584634726e-11, -6.178842098002e-09, 1.371967073283e-08, -3.143375566031e-09, 3.074342203035e-08, 2.080761211946e-16, -3.955901561672e-18, -7.414610517602e-16, 2.480236813936e-16, -3.772050679237e-16, 1.269424561127e-15
101, -1.458638208252e-16, 0.000000000000e+00, -5.738850000000e-02, 6.889383286079e-09, 3.147546635044e-09, -2.966697865696e-09, 8.695447917262e-09, -2.303515542379e-09, 1.649434011597e-08, 9.259484367805e-17, 3.777055962053e-16, -3.560037438836e-16, 2.009282779118e-16, -2.764218650855e-16, 6.688239914156e-16
102, -4.418908557588e-17, 0.000000000000e+00, -5.738850000000e-02, -2.394518361371e-09, 1.666425395278e-09, 1.345469211972e-09, 5.269786385043e-09, -1.923017935919e-09, 8.840544296618e-09, -2.608379089604e-16, 1.999710474334e-16, 1.614563054366e-16, 1.990452158942e-16, -2.307621523103e-16, 4.132487402405e-16
103, 1.736153491487e-16, 0.000000000000e+00, -5.738850000000e-02, 1.160447737902e-09, -1.761042023128e-09, 3.719647634645e-09, 4.466784275792e-09, 1.090412256042e-09, 3.728402475645e-09, -2.391094909538e-17, -2.113250427753e-16, 4.463577161574e-16, 1.744757209968e-16, 1.308494707251e-16, 1.300585209191e-16
104, 0.000000000000e+00, 0.000000000000e+00, -5.738850000000e-02, 7.046743633055e-09, 1.467751092115e-10, -1.129220423069e-09, 8.458648892429e-09, 4.591565543993e-09, 9.154575764114e-09, 1.762319075609e-16, 1.761301310538e-17, -1.355064507683e-16, 2.609164739537e-16, 5.509878652792e-16, 3.027211050192e-16
105, 0.000000000000e+00, -1.888881628220e-16, -5.738850000000e-02, 7.630092113686e-09, 3.953594685315e-09, 4.858994678251e-10, 5.226553412285e-09, -2.398136111329e-09, 1.129319571191e-08, 2.162845625907e-16, 4.744313622378e-16, 5.830793613901e-17, 7.208753038070e-17, -2.877763333594e-16, 4.362219678360e-16
106, -1.382732308280e-16, -1.777531891517e-16, -5.738850000000e-02, 1.972869867473e-09, -9.159439629533e-11, -1.606546415432e-09, 2.386299158275e-09, -6.581657189259e-10, 3.067640363952e-09, 4.410538178337e-17, -1.099132755544e-17, -1.927855698518e-16, 6.890690449279e-17, -7.897988627111e-17, 1.098220567763e-16
107, -6.123354167520e-17, -1.541430327333e-16, -5.738850000000e-02, -6.047862655123e-09, -5.591309398948e-10, 1.072623733482e-09, -2.252766861943e-09, -5.638241572385e-10, -9.653106758378e-09, -1.833432933195e-16, -6.709571278737e-17, 1.287148480178e-16, 4.437090811695e-17, -6.765889886862e-17, -3.995932985814e-16
108, 1.404683544064e-16, -1.109168449554e-16, -5.738850000000e-02, -1.815349648382e-09, -1.422775172166e-11, 2.175558983939e-09, -9.063789718766e-10, 3.514744250276e-12, -6.198192181728e-09, -1.973099871331e-17, -1.707330206599e-18, 2.610670780726e-16, 3.481407723918e-17, 4.217693100331e-19, -2.826570120811e-16
109, 0.000000000000e+00, -1.166382745989e-16, -5.738850000000e-02, 1.653948089597e-09, -2.892971417318e-09, -4.521802573773e-09, -3.112248236903e-10, -1.869852042616e-09, -1.583373432368e-09, 1.016532579081e-16, -3.471565700781e-16, -5.426163088528e-16, -1.625686025351e-17, -2.243822451139e-16, -9.266455739667e-17
110, 0.000000000000e+00, -3.313050418670e-17, -5.738850000000e-02, 3.093958866884e-09, 1.393948821828e-09, 3.654504798921e-10, -3.873367404594e-09, -3.429367103263e-12, -6.684786058031e-11, 1.940932806600e-16, 1.672738586193e-16, 4.385405758706e-17, -2.239378977913e-16, -4.115240523915e-19, 4.479110225081e-18
111, -1.741621560699e-16, -2.351443469905e-17, -5.738850000000e-02, -1.807260119335e-09, -3.954050539762e-10, -6.767749395186e-10, -5.917581091808e-09, 6.425561508927e-10, -6.472767211108e-09, 3.354263523808e-17, -4.744860647714e-17, -8.121299274223e-17, -2.130892621999e-16, 7.710673810712e-17, -2.463307335887e-16
112, -1.989989520073e-17, -5.826824077565e-18, -5.738850000000e-02, -9.424462987795e-09, -1.216733001401e-10, 1.891604920271e-09, -1.047756903461e-08, 1.394704755722e-09, -2.171747581770e-08, -1.492732435604e-16, -1.460079601682e-17, 2.269925904325e-16, -2.124582131825e-16, 1.673645706867e-16, -8.869006704992e-16
113, 1.413914275278e-16, 2.270901141184e-17, -5.738850000000e-02, -6.910536143323e-09, 1.622038150558e-10, 1.876048509709e-09, -9.226374331206e-09, 8.576942957724e-10, -1.942827054791e-08, -5.897060863017e-17, 1.946445780670e-17, 2.251258211651e-16, -1.979356034629e-16, 1.029233154927e-16, -8.100366657006e-16
114, 0.000000000000e+00, 6.317672900622e-17, -5.738850000000e-02, -1.235019198020e-09, 1.449239560274e-10, -5.255025650639e-09, -6.878217106987e-09, 8.472372078859e-10, -1.482693789967e-08, 1.553091532450e-16, 1.739087472329e-17, -6.306030780767e-16, -1.832870245687e-16, 1.016684649463e-16, -6.602249129350e-16
115, 0.000000000000e+00, 1.675817013995e-16, -5.738850000000e-02, 4.639531425710e-09, -1.836373395598e-09, 8.786455963219e-10, 1.285599182665e-09, 1.575402292886e-09, 4.435264600033e-09, 1.747600155734e-16, -2.203648074717e-16, 1.054374715586e-16, -2.647131560388e-17, 1.890482751464e-16, 1.625896682914e-16
116, -1.591351809276e-16, 1.759661888112e-16, -5.738850000000e-02, 3.019557937023e-10, -3.397004553110e-10, -8.016542218051e-10, -4.906226536150e-10, 1.247140002807e-09, -1.675395822076e-09, 3.674111597598e-17, -4.076405463732e-17, -9.619850661661e-17, -1.081096663645e-17, 1.496568003369e-16, -8.181194775998e-17
117, -2.050170333861e-17, 1.785876251505e-16, -5.738850000000e-02, -6.433424459829e-09, -5.568755142296e-10, 1.273775933045e-09, -4.149926624564e-09, 1.025128407288e-09, -1.327681786734e-08, -1.474061501769e-16, -6.682506170755e-17, 1.528531119655e-16, -1.039939484020e-17, 1.230154088745e-16, -5.579791423555e-16
118, 1.517244511338e-16, 1.494274054552e-16, -5.738850000000e-02, -3.025251160693e-09, 2.354528351188e-10, 2.472830831894e-09, -2.825595757372e-09, 1.868519978596e-09, -1.037516028646e-08, -1.924917316015e-17, 2.825434021425e-17, 2.967396998272e-16, -7.288193650024e-18, 2.242223974315e-16, -4.602514455166e-16
119, 0.000000000000e+00, 1.309034905125e-16, -5.738850000000e-02, -1.837328511556e-09, 1.759792306305e-09, -7.346810889490e-09, -3.373923362915e-09, 2.538249793522e-09, -1.431928353668e-08, 8.506839914875e-17, 2.111750767565e-16, -8.816173067388e-16, -7.128148451509e-18, 3.045899752226e-16, -6.638104034008e-16
120, 0.000000000000e+00, 0.000000000000e+00, -5.738850000000e-02, 6.629761628574e-09, -1.481160373757e-11, 1.187255229028e-09, 5.763922672486e-09, 1.674975454525e-09, 1.132320903707e-08, 1.606521733840e-16, -1.777392448508e-18, 1.424706274834e-16, 1.086196846353e-16, 2.009970545431e-16, 4.421376459396e-16
121, -1.175322692512e-16, 0.000000000000e+00, -5.738850000000e-02, 2.471040261298e-09, -2.815269353442e-09, -1.726342578770e-09, 3.581931196095e-09, -5.326650424526e-10, 4.534058462013e-09, 4.240055377058e-17, -3.378323224131e-16, -2.071611094523e-16, 1.090583707753e-16, -6.391980509431e-17, 1.660387864526e-16
122, -3.317643973568e-17, 0.000000000000e+00, -5.738850000000e-02, -3.518465518937e-09, -9.431309444258e-10, 1.880393351741e-09, 1.304186980633e-09, -3.097644858978e-09, -5.754941412306e-09, -1.314306684117e-16, -1.131757133311e-16, 2.256472022089e-16, 1.579281839173e-16, -3.717173830773e-16, -2.655685458867e-16
123, 1.344225088926e-16, 0.000000000000e+00, -5.738850000000e-02, -2.233292661913e-09, 1.407686463445e-09, 2.393808454687e-09, 9.854943527898e-10, -5.227842923219e-09, -9.471136763750e-09, -2.680512150001e-17, 1.689223756134e-16, 2.872570145624e-16, 1.663437187506e-16, -6.273411507863e-16, -4.611653940667e-16
124, 0.000000000000e+00, 0.000000000000e+00, -5.738850000000e-02, 2.611500349303e-09, 2.653318220938e-11, -7.171359364391e-09, 3.968693818024e-09, -7.147868687899e-09, 1.990201781155e-09, 7.101829889834e-17, 3.183981865126e-18, -8.605631237269e-16, 1.524275925937e-16, -8.577442425479e-16, 3.361026734705e-17
