NodeID, PRESSURE1, DISPLACEMENT_X1, DISPLACEMENT_Y1, DISPLACEMENT_Z1, STRESS_XX, STRESS_YY, STRESS_ZZ, STRESS_XY, STRESS_XZ, STRESS_YZ, STRAIN_XX, STRAIN_YY, STRAIN_ZZ, STRAIN_XY, STRAIN_XZ, STRAIN_YZ
0, 2.943000000000e+05, 0.000000000000e+00, 0.000000000000e+00, 0.000000000000e+00, -1.471500000000e+05, -1.471500000000e+05, -4.414500000000e+05, -8.237953804501e-12, -2.528087434989e-11, -6.614206178878e-12, 3.531181715675e-19, -5.056233659939e-20, -3.678750000000e-05, -2.059488451125e-21, -6.320218587473e-21, -1.653551544719e-21
1, 2.943000000000e+05, -6.431499240322e-19, 0.000000000000e+00, 0.000000000000e+00, -1.471500000000e+05, -1.471500000000e+05, -4.414500000000e+05, 2.754868612995e-09, 5.435873320290e-10, -1.153442447110e-11, -1.570893835524e-19, -7.630511264285e-20, -3.678750000000e-05, 6.887171532487e-19, 1.358968330072e-19, -2.883606117774e-21
2, 2.943000000000e+05, -6.310244333744e-20, 0.000000000000e+00, 0.000000000000e+00, -1.471500000000e+05, -1.471500000000e+05, -4.414500000000e+05, -5.243975369775e-10, 6.139365377382e-11, -9.226116074710e-11, 4.910907214192e-20, 2.793008183657e-21, -3.678750000000e-05, -1.310993842444e-19, 1.534841344346e-20, -2.306529018678e-20
3, 2.943000000000e+05, -3.240103353920e-19, 0.000000000000e+00, 0.000000000000e+00, -1.471500000000e+05, -1.471500000000e+05, -4.414500000000e+05, 8.328705233966e-10, -1.562973993959e-09, -7.241968998673e-11, -4.925760056704e-20, 2.912563468987e-19, -3.678750000000e-05, 2.082176308491e-19, -3.907434984898e-19, -1.810492249668e-20
4, 2.943000000000e+05, 0.000000000000e+00, 0.000000000000e+00, 0.000000000000e+00, -1.471500000000e+05, -1.471500000000e+05, -4.414500000000e+05, -9.829147731393e-11, -2.719236233982e-10, 8.118491092879e-11, -3.864234761236e-20, 1.437434819642e-19, -3.678750000000e-05, -2.457286932848e-20, -6.798090584956e-20, 2.029622773220e-20
5, 2.943000000000e+05, 0.000000000000e+00, -4.020659748882e-20, 0.000000000000e+00, -1.471500000000e+05, -1.471500000000e+05, -4.414500000000e+05, -8.298314948462e-10, -1.253612090548e-11, 1.704716978829e-10, 3.350500349114e-19, -4.619041804209e-21, -3.678750000000e-05, -2.074578737115e-19, -3.134030226369e-21, 4.261792447072e-20
6, 2.943000000000e+05, -5.887157837104e-19, 3.944146627053e-20, 0.000000000000e+00, -1.471500000000e+05, -1.471500000000e+05, -4.414500000000e+05, -7.434033493416e-10, 9.914770766160e-10, -1.320414395612e-09, -1.707667223554e-20, -1.376559552429e-20, -3.678750000000e-05, -1.858508373354e-19, 2.478692691540e-19, -3.301035989030e-19
7, 2.943000000000e+05, -4.734026316974e-20, 7.560108026776e-20, 0.000000000000e+00, -1.471500000000e+05, -1.471500000000e+05, -4.414500000000e+05, 7.392784750704e-10, -5.835654469566e-10, -5.869182541382e-10, -2.192508824113e-19, -5.696387333790e-20, -3.678750000000e-05, 1.848196187676e-19, -1.458913617392e-19, -1.467295635345e-19
8, 2.943000000000e+05, -1.362616433003e-19, -5.639996128681e-19, 0.000000000000e+00, -1.471500000000e+05, -1.471500000000e+05, -4.414500000000e+05, 3.033785042853e-10, -1.731391036771e-10, -4.771865307641e-11, 5.953205767088e-20, 1.746206898503e-20, -3.678750000000e-05, 7.584462607131e-20, -4.328477591928e-20, -1.192966326910e-20
9, 2.943000000000e+05, 0.000000000000e+00, -2.833614241150e-19, 0.000000000000e+00, -1.471500000000e+05, -1.471500000000e+05, -4.414500000000e+05, -3.620599941301e-09, -1.187550672286e-10, -2.587516929145e-09, 1.854095904063e-20, 1.632645531656e-19, -3.678750000000e-05, -9.051499853252e-19, -2.968876680715e-20, -6.468792322864e-19
10, 2.943000000000e+05, 0.000000000000e+00, -1.296357458875e-19, 0.000000000000e+00, -1.471500000000e+05, -1.471500000000e+05, -4.414500000000e+05, -6.856601100464e-10, -2.357799533972e-10, 4.498380668237e-10, 1.414604948537e-19, 6.608509655056e-20, -3.678750000000e-05, -1.714150275116e-19, -5.894498834930e-20, 1.124595167059e-19
11, 2.943000000000e+05, -3.669913372621e-19, 1.528080852888e-19, 0.000000000000e+00, -1.471500000000e+05, -1.471500000000e+05, -4.414500000000e+05, 6.827378268159e-10, 1.711332620599e-09, 4.183812811829e-10, 3.865532297636e-20, 1.942205869845e-20, -3.678750000000e-05, 1.706844567040e-19, 4.278331551496e-19, 1.045953202957e-19
12, 2.943000000000e+05, -4.406521700299e-19, -5.555894552498e-20, 0.000000000000e+00, -1.471500000000e+05, -1.471500000000e+05, -4.414500000000e+05, 1.822099480938e-09, 1.235587966337e-09, -5.012012356995e-10, -4.477828672102e-20, 1.427842364247e-19, -3.678750000000e-05, 4.555248702345e-19, 3.088969915844e-19, -1.253003089249e-19
13, 2.943000000000e+05, -6.019290091564e-19, -4.641279720873e-19, 0.000000000000e+00, -1.471500000000e+05, -1.471500000000e+05, -4.414500000000e+05, 2.709931888983e-09, 1.293949358455e-09, -3.783563111196e-10, 8.434682824470e-20, 8.394054801885e-20, -3.678750000000e-05, 6.774829722457e-19, 3.234873396137e-19, -9.458907777989e-20
14, 2.943000000000e+05, 0.000000000000e+00, -5.412867401009e-19, 0.000000000000e+00, -1.471500000000e+05, -1.471500000000e+05, -4.414500000000e+05, -4.157387574599e-09, -2.436747111935e-10, -1.121497655153e-10, -2.979082238538e-19, 9.927276001405e-22, -3.678750000000e-05, -1.039346893650e-18, -6.091867779838e-20, -2.803744137883e-20
15, 2.943000000000e+05, 0.000000000000e+00, -2.141052854259e-19, 0.000000000000e+00, -1.471500000000e+05, -1.471500000000e+05, -4.414500000000e+05, 9.628285589957e-10, 1.580003321846e-10, 2.078816831836e-10, 1.149209114109e-19, 1.210438708793e-20, -3.678750000000e-05, 2.407071397489e-19, 3.950008304615e-20, 5.197042079589e-20
16, 2.943000000000e+05, -4.326763207812e-19, -2.637616937617e-19, 0.000000000000e+00, -1.471500000000e+05, -1.471500000000e+05, -4.414500000000e+05, -1.488292293604e-09, 2.417675562760e-09, 1.123567043726e-09, 1.878067612157e-19, 2.046523007168e-19, -3.678750000000e-05, -3.720730734009e-19, 6.044188906900e-19, 2.808917609316e-19
17, 2.943000000000e+05, -6.294165104988e-19, -3.556866884429e-19, 0.000000000000e+00, -1.471500000000e+05, -1.471500000000e+05, -4.414500000000e+05, 9.673329806850e-10, 9.775258890909e-10, 1.602418520437e-09, -6.266822741461e-20, 4.263554713384e-20, -3.678750000000e-05, 2.418332451712e-19, 2.443814722727e-19, 4.006046301092e-19
18, 2.943000000000e+05, -5.569316697607e-19, -8.794823883886e-19, 0.000000000000e+00, -1.471500000000e+05, -1.471500000000e+05, -4.414500000000e+05, 2.073559272420e-09, 9.644201917757e-10, -1.098983609636e-09, -8.949220119749e-20, 2.658648332537e-20, -3.678750000000e-05, 5.183898181049e-19, 2.411050479439e-19, -2.747459024091e-19
19, 2.943000000000e+05, 0.000000000000e+00, -5.282001360239e-19, 0.000000000000e+00, -1.471500000000e+05, -1.471500000000e+05, -4.414500000000e+05, -5.307401529006e-09, -9.319774021558e-11, -1.300940750853e-09, -1.862135766182e-19, -4.556450338917e-20, -3.678750000000e-05, -1.326850382251e-18, -2.329943505390e-20, -3.252351877133e-19
20, 2.943000000000e+05, 0.000000000000e+00, 0.000000000000e+00, 0.000000000000e+00, -1.471500000000e+05, -1.471500000000e+05, -4.414500000000e+05, 2.202018981259e-10, -3.627441649311e-10, 2.665263643970e-10, 3.066729930650e-19, -9.657854706918e-20, -3.678750000000e-05, 5.505047453148e-20, -9.068604123278e-20, 6.663159109924e-20
21, 2.943000000000e+05, -5.376891392672e-19, 0.000000000000e+00, 0.000000000000e+00, -1.471500000000e+05, -1.471500000000e+05, -4.414500000000e+05, -5.683059620488e-10, -4.934299006698e-10, -2.340065816990e-10, 2.269029849406e-19, -3.443124151391e-19, -3.678750000000e-05, -1.420764905122e-19, -1.233574751675e-19, -5.850164542474e-20
22, 2.943000000000e+05, -7.498159511942e-19, 0.000000000000e+00, 0.000000000000e+00, -1.471500000000e+05, -1.471500000000e+05, -4.414500000000e+05, -2.159348995745e-09, -9.538430004834e-10, -4.374883569856e-11, -5.661340141348e-20, -2.597048286250e-19, -3.678750000000e-05, -5.398372489362e-19, -2.384607501208e-19, -1.093720892464e-20
23, 2.943000000000e+05, -6.922568966048e-19, 0.000000000000e+00, 0.000000000000e+00, -1.471500000000e+05, -1.471500000000e+05, -4.414500000000e+05, -1.685913854373e-09, -5.239751116114e-10, -2.020102897230e-10, -1.596168763083e-19, -5.472345475572e-19, -3.678750000000e-05, -4.214784635933e-19, -1.309937779029e-19, -5.050257243076e-20
24, 2.943000000000e+05, 0.000000000000e+00, 0.000000000000e+00, 0.000000000000e+00, -1.471500000000e+05, -1.471500000000e+05, -4.414500000000e+05, -2.846372826735e-11, -3.680270160035e-11, -1.758534889483e-11, -3.280184075025e-19, -3.811290367175e-19, -3.678750000000e-05, -7.115932066838e-21, -9.200675400088e-21, -4.396337223707e-21
25, 2.207250000000e+05, 0.000000000000e+00, 0.000000000000e+00, -2.414179687500e-04, -1.103625000000e+05, -1.103625000000e+05, -3.310875000000e+05, 1.444643970165e-10, 6.643565078973e-09, 3.816509344154e-09, -8.768026069866e-20, -2.052145739092e-19, -2.759062500000e-05, 3.611609925411e-20, 1.660891269743e-18, 9.541273360385e-19
26, 2.207250000000e+05, -9.070766837353e-20, 0.000000000000e+00, -2.414179687500e-04, -1.103625000000e+05, -1.103625000000e+05, -3.310875000000e+05, 1.154995545359e-09, -1.427542644226e-09, 5.609537542584e-09, 7.879856877683e-20, -7.260065995638e-20, -2.759062500000e-05, 2.887488863397e-19, -3.568856610566e-19, 1.402384385646e-18
27, 2.207250000000e+05, 1.414395538924e-19, 0.000000000000e+00, -2.414179687500e-04, -1.103625000000e+05, -1.103625000000e+05, -3.310875000000e+05, 7.077370580293e-10, -8.800443740626e-10, 7.077728585790e-09, -1.532968988039e-19, -4.924131178874e-20, -2.759062500000e-05, 1.769342645073e-19, -2.200110935156e-19, 1.769432146447e-18
28, 2.207250000000e+05, 4.944455165613e-19, 0.000000000000e+00, -2.414179687500e-04, -1.103625000000e+05, -1.103625000000e+05, -3.310875000000e+05, -3.634430601153e-10, -1.441941845976e-09, 2.986574359089e-09, -8.816722893672e-20, 5.659174134241e-20, -2.759062500000e-05, -9.086076502882e-20, -3.604854614939e-19, 7.466435897721e-19
29, 2.207250000000e+05, 0.000000000000e+00, 0.000000000000e+00, -2.414179687500e-04, -1.103625000000e+05, -1.103625000000e+05, -3.310875000000e+05, 1.099635893395e-10, -1.708995430287e-09, 3.126621260311e-09, 4.130113786263e-19, 1.258156453913e-19, -2.759062500000e-05, 2.749089733488e-20, -4.272488575718e-19, 7.816553150778e-19
30, 2.207250000000e+05, 0.000000000000e+00, 2.871671068361e-19, -2.414179687500e-04, -1.103625000000e+05, -1.103625000000e+05, -3.310875000000e+05, -1.581586275744e-10, 6.049550276794e-09, -1.565682751397e-09, 1.047424245494e-19, -2.525375845117e-20, -2.759062500000e-05, -3.953965689360e-20, 1.512387569198e-18, -3.914206878494e-19
31, 2.207250000000e+05, -2.671041969959e-19, 8.712474354664e-20, -2.414179687500e-04, -1.103625000000e+05, -1.103625000000e+05, -3.310875000000e+05, 5.617760156154e-10, -1.803791343367e-09, 3.169002315139e-10, 8.298291858889e-20, -7.098776246077e-20, -2.759062500000e-05, 1.404440039038e-19, -4.509478358418e-19, 7.922505787846e-20
32, 2.207250000000e+05, 7.443369176130e-21, -7.816419949609e-20, -2.414179687500e-04, -1.103625000000e+05, -1.103625000000e+05, -3.310875000000e+05, -2.689082475760e-10, -6.568223532520e-10, -2.758414973165e-10, -2.447160908793e-19, 4.074469517126e-20, -2.759062500000e-05, -6.722706189401e-20, -1.642055883130e-19, -6.896037432913e-20
33, 2.207250000000e+05, 3.245478278718e-19, -1.741059414492e-19, -2.414179687500e-04, -1.103625000000e+05, -1.103625000000e+05, -3.310875000000e+05, 8.214575304794e-10, -2.229631348113e-09, -1.010711341721e-09, -1.104219925397e-20, 7.439991287235e-20, -2.759062500000e-05, 2.053643826198e-19, -5.574078370281e-19, -2.526778354302e-19
34, 2.207250000000e+05, 0.000000000000e+00, -3.407979552484e-20, -2.414179687500e-04, -1.103625000000e+05, -1.103625000000e+05, -3.310875000000e+05, -3.499795365244e-09, 3.170675890106e-10, -3.137786171410e-10, 2.408083185394e-19, 1.074640819329e-19, -2.759062500000e-05, -8.749488413110e-19, 7.926689725265e-20, -7.844465428526e-20
35, 2.207250000000e+05, 0.000000000000e+00, -1.506798841931e-19, -2.414179687500e-04, -1.103625000000e+05, -1.103625000000e+05, -3.310875000000e+05, 4.309808885462e-10, 6.402376709654e-09, -2.567252637086e-10, 7.540255923768e-20, 1.626848080748e-19, -2.759062500000e-05, 1.077452221366e-19, 1.600594177413e-18, -6.418131592716e-20
36, 2.207250000000e+05, -3.613456239880e-19, 4.415008457359e-20, -2.414179687500e-04, -1.103625000000e+05, -1.103625000000e+05, -3.310875000000e+05, -7.352935378177e-10, -4.451906257400e-10, -1.171671540831e-09, 1.089756406373e-19, 1.044356073236e-19, -2.759062500000e-05, -1.838233844544e-19, -1.112976564350e-19, -2.929178852078e-19
37, 2.207250000000e+05, -1.354757893374e-19, -3.113861694735e-20, -2.414179687500e-04, -1.103625000000e+05, -1.103625000000e+05, -3.310875000000e+05, 7.616358091652e-10, -5.944135571304e-10, -8.754093667856e-10, -2.273362835289e-19, 2.935497582060e-20, -2.759062500000e-05, 1.904089522913e-19, -1.486033892826e-19, -2.188523416964e-19
38, 2.207250000000e+05, 2.176626627898e-19, -3.271884345243e-19, -2.414179687500e-04, -1.103625000000e+05, -1.103625000000e+05, -3.310875000000e+05, 1.679314401133e-09, -2.855153978872e-09, -6.270024626580e-11, -1.111023332192e-21, 1.677300514434e-20, -2.759062500000e-05, 4.198286002833e-19, -7.137884947179e-19, -1.567506156645e-20
39, 2.207250000000e+05, 0.000000000000e+00, -5.478379605696e-19, -2.414179687500e-04, -1.103625000000e+05, -1.103625000000e+05, -3.310875000000e+05, -3.902609676185e-09, -1.935214434120e-09, -1.579815017874e-09, 1.635407732099e-19, 1.513647052330e-19, -2.759062500000e-05, -9.756524190463e-19, -4.838036085300e-19, -3.949537544684e-19
40, 2.207250000000e+05, 0.000000000000e+00, 2.028848409879e-19, -2.414179687500e-04, -1.103625000000e+05, -1.103625000000e+05, -3.310875000000e+05, -7.406219768623e-10, 6.656336371883e-09, -3.948060855817e-12, 1.973196526737e-19, -1.133629704841e-19, -2.759062500000e-05, -1.851554942156e-19, 1.664084092971e-18, -9.870152139543e-22
41, 2.207250000000e+05, -3.758533286468e-19, 3.173575202382e-19, -2.414179687500e-04, -1.103625000000e+05, -1.103625000000e+05, -3.310875000000e+05, 1.017751663166e-09, -8.554604965090e-10, -1.323206694524e-09, 6.971154368798e-20, -1.170266661988e-19, -2.759062500000e-05, 2.544379157914e-19, -2.138651241272e-19, -3.308016736311e-19
42, 2.207250000000e+05, -4.025714110824e-19, 8.755566788193e-20, -2.414179687500e-04, -1.103625000000e+05, -1.103625000000e+05, -3.310875000000e+05, 6.474622982729e-10, -1.742349505759e-09, -2.307283906783e-09, -1.187398637995e-19, -8.952461688802e-20, -2.759062500000e-05, 1.618655745682e-19, -4.355873764398e-19, -5.768209766958e-19
43, 2.207250000000e+05, -1.887819822096e-21, -1.191158862036e-19, -2.414179687500e-04, -1.103625000000e+05, -1.103625000000e+05, -3.310875000000e+05, 1.098592530053e-09, -1.278777751484e-09, -9.922813149404e-10, -8.346001822565e-20, -1.360239150363e-19, -2.759062500000e-05, 2.746481325134e-19, -3.196944378711e-19, -2.480703287351e-19
44, 2.207250000000e+05, 0.000000000000e+00, -1.328415732235e-19, -2.414179687500e-04, -1.103625000000e+05, -1.103625000000e+05, -3.310875000000e+05, -2.896858344124e-09, -1.622209856003e-09, -2.785348249777e-09, 6.765702400058e-20, -3.370337083698e-19, -2.759062500000e-05, -7.242145860309e-19, -4.055524640006e-19, -6.963370624444e-19
45, 2.207250000000e+05, 0.000000000000e+00, 0.000000000000e+00, -2.414179687500e-04, -1.103625000000e+05, -1.103625000000e+05, -3.310875000000e+05, -7.710769402398e-11, 5.707518726634e-09, -3.044168272618e-09, 9.461625018258e-20, 1.570784156302e-19, -2.759062500000e-05, -1.927692350599e-20, 1.426879681658e-18, -7.610420681545e-19
46, 2.207250000000e+05, -2.368768445171e-19, 0.000000000000e+00, -2.414179687500e-04, -1.103625000000e+05, -1.103625000000e+05, -3.310875000000e+05, -1.989456248784e-09, -1.226243298302e-09, -1.549765361018e-09, 1.755643773111e-19, 2.397583026283e-19, -2.759062500000e-05, -4.973640621959e-19, -3.065608245756e-19, -3.874413402546e-19
47, 2.207250000000e+05, -4.328638960175e-19, 0.000000000000e+00, -2.414179687500e-04, -1.103625000000e+05, -1.103625000000e+05, -3.310875000000e+05, -1.362266686867e-09, 6.624835326662e-10, -1.606849557591e-09, -3.574352526574e-20, 8.809120358106e-20, -2.759062500000e-05, -3.405666717167e-19, 1.656208831665e-19, -4.017123893977e-19
48, 2.207250000000e+05, -2.746458260013e-19, 0.000000000000e+00, -2.414179687500e-04, -1.103625000000e+05, -1.103625000000e+05, -3.310875000000e+05, 3.274900570959e-10, -4.915113664639e-10, 1.461163861124e-09, -1.657214247195e-19, 3.311025269686e-20, -2.759062500000e-05, 8.187251427397e-20, -1.228778416160e-19, 3.652909652809e-19
49, 2.207250000000e+05, 0.000000000000e+00, 0.000000000000e+00, -2.414179687500e-04, -1.103625000000e+05, -1.103625000000e+05, -3.310875000000e+05, 7.103843271118e-11, -5.245269620783e-09, 2.316013749454e-09, -4.281510483434e-20, 3.059419701636e-20, -2.759062500000e-05, 1.775960817780e-20, -1.311317405196e-18, 5.790034373636e-19
50, 1.471500000000e+05, 0.000000000000e+00, 0.000000000000e+00, -4.138593750000e-04, -7.357500000000e+04, -7.357500000000e+04, -2.207250000000e+05, -4.065887946087e-11, 6.515615511516e-10, 8.589113126459e-10, 7.975573179623e-20, 1.653528211804e-19, -1.839375000000e-05, -1.016471986522e-20, 1.628903877879e-19, 2.147278281615e-19
51, 1.471500000000e+05, -2.175175962466e-19, 0.000000000000e+00, -4.138593750000e-04, -7.357500000000e+04, -7.357500000000e+04, -2.207250000000e+05, -5.745097147487e-11, -1.805645001732e-09, 2.328281922344e-09, -5.579062266015e-20, 3.463869200747e-20, -1.839375000000e-05, -1.436274286872e-20, -4.514112504330e-19, 5.820704805860e-19
52, 1.471500000000e+05, 4.031056365625e-20, 0.000000000000e+00, -4.138593750000e-04, -7.357500000000e+04, -7.357500000000e+04, -2.207250000000e+05, -1.926886558498e-10, 2.765955971951e-11, -7.473747585705e-10, -1.293361018014e-19, 3.766164037095e-20, -1.839375000000e-05, -4.817216396246e-20, 6.914889929877e-21, -1.868436896426e-19
53, 1.471500000000e+05, 3.760999789003e-19, 0.000000000000e+00, -4.138593750000e-04, -7.357500000000e+04, -7.357500000000e+04, -2.207250000000e+05, -1.260280742664e-09, -9.837269379886e-10, -2.006867549630e-09, 5.540669886362e-20, -1.530840937534e-20, -1.839375000000e-05, -3.150701856659e-19, -2.459317344972e-19, -5.017168874075e-19
54, 1.471500000000e+05, 0.000000000000e+00, 0.000000000000e+00, -4.138593750000e-04, -7.357500000000e+04, -7.357500000000e+04, -2.207250000000e+05, 5.744168060175e-11, 5.447277521713e-09, -2.951884174052e-09, 1.796843193996e-19, 3.237625570056e-20, -1.839375000000e-05, 1.436042015044e-20, 1.361819380428e-18, -7.379710435131e-19
55, 1.471500000000e+05, 0.000000000000e+00, 2.586423273268e-20, -4.138593750000e-04, -7.357500000000e+04, -7.357500000000e+04, -2.207250000000e+05, -1.110176524609e-09, 2.977070328464e-09, -1.348324573526e-09, 1.099856682704e-19, -1.106483003896e-19, -1.839375000000e-05, -2.775441311522e-19, 7.442675821161e-19, -3.370811433815e-19
56, 1.471500000000e+05, -8.435360480476e-20, 3.889971565796e-21, -4.138593750000e-04, -7.357500000000e+04, -7.357500000000e+04, -2.207250000000e+05, -3.019348353000e-10, 1.625488174798e-10, -9.887877922920e-10, -5.632267413427e-20, -5.771091303179e-20, -1.839375000000e-05, -7.548370882500e-20, 4.063720436995e-20, -2.471969480730e-19
57, 1.471500000000e+05, 2.019051768752e-20, 3.083235057055e-20, -4.138593750000e-04, -7.357500000000e+04, -7.357500000000e+04, -2.207250000000e+05, 1.540222279351e-10, -1.222909086929e-09, -2.272974654736e-10, -1.469881894137e-19, -3.953286926006e-20, -1.839375000000e-05, 3.850555698376e-20, -3.057272717322e-19, -5.682436636839e-20
58, 1.471500000000e+05, 3.884872276778e-19, -1.039839463625e-19, -4.138593750000e-04, -7.357500000000e+04, -7.357500000000e+04, -2.207250000000e+05, 6.614703552237e-10, -3.423624656440e-10, -7.697407832763e-10, 9.156161564126e-20, 6.950390636306e-20, -1.839375000000e-05, 1.653675888059e-19, -8.559061641100e-20, -1.924351958191e-19
59, 1.471500000000e+05, 0.000000000000e+00, -4.755355514484e-20, -4.138593750000e-04, -7.357500000000e+04, -7.357500000000e+04, -2.207250000000e+05, -1.086303843635e-09, 3.072836995833e-09, -4.506160788961e-10, 1.135128275429e-19, 1.489686115068e-19, -1.839375000000e-05, -2.715759609088e-19, 7.682092489584e-19, -1.126540197240e-19
60, 1.471500000000e+05, 0.000000000000e+00, 1.775428089176e-19, -4.138593750000e-04, -7.357500000000e+04, -7.357500000000e+04, -2.207250000000e+05, -1.533362480840e-09, -6.236632936029e-10, -2.698049313133e-10, 1.562771576141e-19, -4.195617432049e-20, -1.839375000000e-05, -3.833406202100e-19, -1.559158234007e-19, -6.745123282832e-20
61, 1.471500000000e+05, -1.108176349663e-19, 2.133461805540e-19, -4.138593750000e-04, -7.357500000000e+04, -7.357500000000e+04, -2.207250000000e+05, 1.133343695236e-10, -5.469627471563e-10, -2.131549309703e-09, -7.572706230932e-20, -8.244575200586e-20, -1.839375000000e-05, 2.833359238090e-20, -1.367406867891e-19, -5.328873274257e-19
62, 1.471500000000e+05, 8.591890285485e-20, 7.042278333577e-20, -4.138593750000e-04, -7.357500000000e+04, -7.357500000000e+04, -2.207250000000e+05, 7.756246708159e-10, -9.386673011724e-10, -1.310100332573e-09, -6.476025547217e-20, 1.856831294921e-20, -1.839375000000e-05, 1.939061677040e-19, -2.346668252931e-19, -3.275250831433e-19
63, 1.471500000000e+05, 1.992033128255e-19, -6.794603866907e-20, -4.138593750000e-04, -7.357500000000e+04, -7.357500000000e+04, -2.207250000000e+05, 9.365923736384e-10, 5.380768133843e-10, -1.401346056683e-09, 1.902390786486e-20, -7.893134830996e-20, -1.839375000000e-05, 2.341480934096e-19, 1.345192033461e-19, -3.503365141708e-19
64, 1.471500000000e+05, 0.000000000000e+00, -2.060708263908e-19, -4.138593750000e-04, -7.357500000000e+04, -7.357500000000e+04, -2.207250000000e+05, -4.675315032804e-10, 5.565770161272e-09, -1.008218387588e-09, 8.664966221919e-20, -4.117607719024e-20, -1.839375000000e-05, -1.168828758201e-19, 1.391442540318e-18, -2.520545968969e-19
65, 1.471500000000e+05, 0.000000000000e+00, 1.465489984052e-20, -4.138593750000e-04, -7.357500000000e+04, -7.357500000000e+04, -2.207250000000e+05, -9.831215602726e-10, 7.532298558387e-10, -4.558080702779e-10, 1.747040137873e-19, 6.644163677491e-20, -1.839375000000e-05, -2.457803900681e-19, 1.883074639597e-19, -1.139520175695e-19
66, 1.471500000000e+05, -5.971170426860e-20, 1.623073135062e-20, -4.138593750000e-04, -7.357500000000e+04, -7.357500000000e+04, -2.207250000000e+05, 9.020833065220e-10, -8.956548275017e-10, -2.384635445885e-10, -2.483669978638e-20, 1.373007961526e-19, -1.839375000000e-05, 2.255208266305e-19, -2.239137068754e-19, -5.961588614713e-20
67, 1.471500000000e+05, -2.465190747724e-19, -1.881968008641e-19, -4.138593750000e-04, -7.357500000000e+04, -7.357500000000e+04, -2.207250000000e+05, 9.147589840418e-10, 2.382410810039e-10, -2.700571208112e-11, -4.908556162935e-20, 2.823818649175e-20, -1.839375000000e-05, 2.286897460105e-19, 5.956027025099e-20, -6.751428020281e-21
68, 1.471500000000e+05, 1.677414143532e-20, -3.162817131907e-19, -4.138593750000e-04, -7.357500000000e+04, -7.357500000000e+04, -2.207250000000e+05, 1.402748001611e-10, -3.053021599134e-10, -1.192270595787e-09, -3.525044500703e-20, 4.740623428540e-20, -1.839375000000e-05, 3.506870004027e-20, -7.632553997834e-20, -2.980676489468e-19
69, 1.471500000000e+05, 0.000000000000e+00, -1.846838058051e-19, -4.138593750000e-04, -7.357500000000e+04, -7.357500000000e+04, -2.207250000000e+05, -9.802327837538e-10, 3.903258521272e-09, -1.591273007542e-10, 4.364139905819e-20, -9.599558337414e-21, -1.839375000000e-05, -2.450581959384e-19, 9.758146303180e-19, -3.978182518855e-20
70, 1.471500000000e+05, 0.000000000000e+00, 0.000000000000e+00, -4.138593750000e-04, -7.357500000000e+04, -7.357500000000e+04, -2.207250000000e+05, 9.150403956139e-11, -2.406112458702e-09, 2.565360439233e-09, 3.254447734719e-19, 6.972854689874e-21, -1.839375000000e-05, 2.287600989035e-20, -6.015281146755e-19, 6.413401098083e-19
71, 1.471500000000e+05, -3.785438228843e-19, 0.000000000000e+00, -4.138593750000e-04, -7.357500000000e+04, -7.357500000000e+04, -2.207250000000e+05, -9.931899697182e-10, 5.283885323922e-10, 2.582249540005e-09, -7.807512967470e-20, -2.892695423739e-20, -1.839375000000e-05, -2.482974924296e-19, 1.320971330981e-19, 6.455623850013e-19
72, 1.471500000000e+05, -1.093528502818e-19, 0.000000000000e+00, -4.138593750000e-04, -7.357500000000e+04, -7.357500000000e+04, -2.207250000000e+05, -8.258348012000e-10, 8.057430155682e-12, 3.054598341133e-09, -9.412833355392e-22, -5.220890073277e-20, -1.839375000000e-05, -2.064587003000e-19, 2.014357538921e-21, 7.636495852832e-19
73, 1.471500000000e+05, 8.217147562562e-20, 0.000000000000e+00, -4.138593750000e-04, -7.357500000000e+04, -7.357500000000e+04, -2.207250000000e+05, 4.043492900117e-10, 6.834998435984e-10, 6.732538103246e-09, -5.945131470462e-20, -6.064917530165e-20, -1.839375000000e-05, 1.010873225029e-19, 1.708749608996e-19, 1.683134525812e-18
74, 1.471500000000e+05, 0.000000000000e+00, 0.000000000000e+00, -4.138593750000e-04, -7.357500000000e+04, -7.357500000000e+04, -2.207250000000e+05, 1.173350789179e-10, 2.208860917656e-09, 5.501259668936e-09, -4.850931804215e-20, -2.287622076589e-19, -1.839375000000e-05, 2.933376972948e-20, 5.522152294141e-19, 1.375314917234e-18
75, 7.357500000000e+04, 0.000000000000e+00, 0.000000000000e+00, -5.173242187500e-04, -3.678750000000e+04, -3.678750000000e+04, -1.103625000000e+05, -3.338641679640e-11, 1.677828935728e-09, 1.164427950820e-09, 1.273146034499e-19, -1.812673967909e-19, -9.196874999999e-06, -8.346604199100e-21, 4.194572339319e-19, 2.911069877051e-19
76, 7.357500000000e+04, -2.571626651368e-19, 0.000000000000e+00, -5.173242187500e-04, -3.678750000000e+04, -3.678750000000e+04, -1.103625000000e+05, 1.013851057829e-09, 1.518625917865e-10, 1.423818535074e-09, -3.995924831795e-20, -1.961004279825e-19, -9.196875000000e-06, 2.534627644571e-19, 3.796564794662e-20, 3.559546337686e-19
77, 7.357500000000e+04, 2.009263115595e-19, 0.000000000000e+00, -5.173242187500e-04, -3.678750000000e+04, -3.678750000000e+04, -1.103625000000e+05, -9.725356046234e-11, -5.604179905357e-11, 2.105192759365e-09, -6.562384358486e-20, -6.784931453805e-20, -9.196875000000e-06, -2.431339011559e-20, -1.401044976339e-20, 5.262981898412e-19
78, 7.357500000000e+04, 2.481708985878e-19, 0.000000000000e+00, -5.173242187500e-04, -3.678750000000e+04, -3.678750000000e+04, -1.103625000000e+05, -8.195593741369e-10, -7.429704258293e-10, -7.220583154064e-10, -4.096250290151e-20, -7.041649368229e-20, -9.196874999999e-06, -2.048898435342e-19, -1.857426064573e-19, -1.805145788516e-19
79, 7.357500000000e+04, 0.000000000000e+00, 0.000000000000e+00, -5.173242187500e-04, -3.678750000000e+04, -3.678750000000e+04, -1.103625000000e+05, -1.592293255413e-11, 9.505775515963e-10, -5.957479225513e-11, 1.657765861587e-19, -1.124295145498e-19, -9.196874999999e-06, -3.980733138532e-21, 2.376443878991e-19, -1.489369806378e-20
80, 7.357500000000e+04, 0.000000000000e+00, 2.600844669453e-19, -5.173242187500e-04, -3.678750000000e+04, -3.678750000000e+04, -1.103625000000e+05, -1.570562707485e-10, 6.458461091228e-10, -1.669736317907e-09, 4.260334202119e-20, 9.928138467207e-20, -9.196875000000e-06, -3.926406768713e-20, 1.614615272807e-19, -4.174340794768e-19
81, 7.357500000000e+04, -4.721959400574e-20, 1.480276695884e-20, -5.173242187500e-04, -3.678750000000e+04, -3.678750000000e+04, -1.103625000000e+05, 1.470243774800e-10, -1.402334069707e-09, -5.797810235543e-10, 7.700396804019e-20, 8.952115924252e-20, -9.196875000000e-06, 3.675609436999e-20, -3.505835174268e-19, -1.449452558886e-19
82, 7.357500000000e+04, 1.526136502096e-19, -6.591301681468e-20, -5.173242187500e-04, -3.678750000000e+04, -3.678750000000e+04, -1.103625000000e+05, 8.693058230431e-11, 5.775622616681e-10, 1.163406149816e-10, -8.432751052092e-20, 1.646229629917e-20, -9.196874999999e-06, 2.173264557608e-20, 1.443905654170e-19, 2.908515374540e-20
83, 7.357500000000e+04, 2.315883942720e-19, 9.892777961479e-20, -5.173242187500e-04, -3.678750000000e+04, -3.678750000000e+04, -1.103625000000e+05, -3.446275556688e-10, 1.805048484201e-12, -1.218845448272e-09, -1.078703149794e-19, -8.861440012860e-20, -9.196874999999e-06, -8.615688891720e-20, 4.512621210504e-22, -3.047113620679e-19
84, 7.357500000000e+04, 0.000000000000e+00, 2.819190297329e-19, -5.173242187500e-04, -3.678750000000e+04, -3.678750000000e+04, -1.103625000000e+05, -4.366784718289e-10, -1.231780729479e-10, 1.456972913198e-10, 1.877843728991e-19, -2.095584858005e-20, -9.196874999999e-06, -1.091696179572e-19, -3.079451823698e-20, 3.642432282996e-20
85, 7.357500000000e+04, 0.000000000000e+00, 1.881519482732e-19, -5.173242187500e-04, -3.678750000000e+04, -3.678750000000e+04, -1.103625000000e+05, 1.538443937369e-10, -2.009274638598e-10, 1.258592458863e-09, 1.502261178861e-19, -1.183294397540e-19, -9.196875000000e-06, 3.846109843421e-20, -5.023186596495e-20, 3.146481147157e-19
86, 7.357500000000e+04, -4.207835443962e-19, 1.902776043563e-21, -5.173242187500e-04, -3.678750000000e+04, -3.678750000000e+04, -1.103625000000e+05, -8.238227278039e-12, 1.385229457798e-10, -8.709943096083e-10, 1.439406328104e-19, -9.418568378754e-20, -9.196875000000e-06, -2.059556819510e-21, 3.463073644496e-20, -2.177485774021e-19
87, 7.357500000000e+04, 7.950237327507e-21, -5.903577561818e-20, -5.173242187500e-04, -3.678750000000e+04, -3.678750000000e+04, -1.103625000000e+05, 4.905245625363e-10, -1.979497941604e-10, -1.329619613696e-09, -2.222628601222e-19, -1.011909705959e-19, -9.196874999999e-06, 1.226311406341e-19, -4.948744854011e-20, -3.324049034239e-19
88, 7.357500000000e+04, 2.755675517320e-19, 7.693268443656e-20, -5.173242187500e-04, -3.678750000000e+04, -3.678750000000e+04, -1.103625000000e+05, 2.236323794883e-10, -9.990607310060e-10, -1.691398490168e-10, -6.424755357019e-20, 1.041779645416e-19, -9.196874999999e-06, 5.590809487208e-20, -2.497651827515e-19, -4.228496225420e-20
89, 7.357500000000e+04, 0.000000000000e+00, 3.470388500763e-19, -5.173242187500e-04, -3.678750000000e+04, -3.678750000000e+04, -1.103625000000e+05, 8.958988038011e-11, 1.457471769959e-09, -2.589045717727e-09, 1.349134438779e-19, 8.192036751482e-20, -9.196874999999e-06, 2.239747009503e-20, 3.643679424896e-19, -6.472614294317e-19
90, 7.357500000000e+04, 0.000000000000e+00, 3.555055057789e-19, -5.173242187500e-04, -3.678750000000e+04, -3.678750000000e+04, -1.103625000000e+05, -1.484368407695e-10, -8.855054793121e-10, -2.079512376128e-09, 1.215096086272e-19, 4.430141433786e-20, -9.196874999999e-06, -3.710921019238e-20, -2.213763698280e-19, -5.198780940321e-19
91, 7.357500000000e+04, -4.079620956954e-19, 2.048565532711e-19, -5.173242187500e-04, -3.678750000000e+04, -3.678750000000e+04, -1.103625000000e+05, -2.438957703154e-10, -1.325103610212e-09, -6.252489993851e-10, 1.457299058808e-19, 5.779016713024e-20, -9.196875000000e-06, -6.097394257885e-20, -3.312759025530e-19, -1.563122498463e-19
92, 7.357500000000e+04, -3.134570962640e-19, 1.694942240931e-19, -5.173242187500e-04, -3.678750000000e+04, -3.678750000000e+04, -1.103625000000e+05, 7.195118328351e-10, 8.626966443173e-11, -7.283679692066e-10, -8.521858402806e-20, 9.360607467684e-20, -9.196874999999e-06, 1.798779582088e-19, 2.156741610793e-20, -1.820919923016e-19
93, 7.357500000000e+04, 6.379341884664e-20, 9.957227907593e-20, -5.173242187500e-04, -3.678750000000e+04, -3.678750000000e+04, -1.103625000000e+05, 7.941185051876e-10, 2.769483956321e-11, 2.140891015290e-10, -1.051493407573e-19, -2.598708173609e-20, -9.196874999999e-06, 1.985296262969e-19, 6.923709890801e-21, 5.352227538224e-20
94, 7.357500000000e+04, 0.000000000000e+00, 1.499568142277e-19, -5.173242187500e-04, -3.678750000000e+04, -3.678750000000e+04, -1.103625000000e+05, -8.063706670064e-10, 2.980204634905e-09, -1.254853469474e-09, -3.223357081811e-20, -5.933802027686e-20, -9.196874999999e-06, -2.015926667516e-19, 7.450511587263e-19, -3.137133673686e-19
95, 7.357500000000e+04, 0.000000000000e+00, 0.000000000000e+00, -5.173242187500e-04, -3.678750000000e+04, -3.678750000000e+04, -1.103625000000e+05, 1.275490395915e-11, -2.839410386449e-09, 3.144946875291e-09, 8.636075495934e-20, 1.307606782790e-19, -9.196875000000e-06, 3.188725989788e-21, -7.098525966122e-19, 7.862367188228e-19
96, 7.357500000000e+04, -5.230058674517e-19, 0.000000000000e+00, -5.173242187500e-04, -3.678749999999e+04, -3.678750000000e+04, -1.103625000000e+05, -1.126576663963e-09, 1.065430283435e-10, 2.152559389234e-09, 2.885798773971e-19, 8.984914281206e-20, -9.196875000000e-06, -2.816441659906e-19, 2.663575708588e-20, 5.381398473084e-19
97, 7.357500000000e+04, -3.703098778854e-19, 0.000000000000e+00, -5.173242187500e-04, -3.678750000000e+04, -3.678750000000e+04, -1.103625000000e+05, -1.477566705079e-09, 1.029614430026e-10, 1.003036295148e-09, -2.074140314070e-19, 5.009451377784e-20, -9.196875000000e-06, -3.693916762698e-19, 2.574036075064e-20, 2.507590737871e-19
98, 7.357500000000e+04, -1.491042413248e-19, 0.000000000000e+00, -5.173242187500e-04, -3.678750000000e+04, -3.678750000000e+04, -1.103625000000e+05, -3.032730971174e-10, -2.042871331726e-09, 2.275857368628e-09, -1.229450836556e-19, 9.126352832842e-20, -9.196874999999e-06, -7.581827427936e-20, -5.107178329316e-19, 5.689643421569e-19
99, 7.357500000000e+04, 0.000000000000e+00, 0.000000000000e+00, -5.173242187500e-04, -3.678750000000e+04, -3.678750000000e+04, -1.103625000000e+05, 2.822836167919e-12, 4.487928938181e-09, 4.618896824966e-09, -2.802279628352e-21, 1.091765172340e-19, -9.196874999999e-06, 7.057090419797e-22, 1.121982234545e-18, 1.154724206241e-18
100, 0.000000000000e+00, 0.000000000000e+00, 0.000000000000e+00, -5.518125000000e-04, -3.179820851074e-10, -1.082298695110e-10, -9.155883162748e-09, -1.122491529578e-10, 2.811644007763e-09, 5.803388016293e-09, 1.998673610584e-19, 2.260625438581e-19, -9.050811739208e-19, -2.806228823944e-20, 7.029110019407e-19, 1.450847004073e-18
101, 0.000000000000e+00, -5.399267991647e-20, 0.000000000000e+00, -5.518125000000e-04, -7.522942269134e-10, -1.147625994236e-09, -7.934033874335e-09, 9.451242870694e-10, -2.032179961807e-09, 7.670450047050e-09, 1.519194804288e-19, 1.024220341894e-19, -7.461466910249e-19, 2.362810717674e-19, -5.080449904519e-19, 1.917612511763e-18
102, 0.000000000000e+00, -4.615564892489e-20, 0.000000000000e+00, -5.518125000000e-04, -2.838014268036e-09, -5.950440140623e-10, 2.662744691406e-09, 3.660098293466e-10, -5.912018715353e-10, 1.124453357601e-10, -3.354103048304e-19, -5.505262100819e-20, 3.519372265005e-19, 9.150245733665e-20, -1.478004678838e-19, 2.811133394003e-20
103, 0.000000000000e+00, 6.080411662703e-19, 0.000000000000e+00, -5.518125000000e-04, -3.055340869196e-09, -4.445972479061e-09, -7.609855856572e-09, 3.580512122596e-10, 2.897295905799e-09, 4.995730981854e-09, -4.165649384538e-21, -1.780224681979e-19, -5.733304630891e-19, 8.951280306489e-20, 7.243239764497e-19, 1.248932745463e-18
104, 0.000000000000e+00, 0.000000000000e+00, 0.000000000000e+00, -5.518125000000e-04, 9.253398047804e-10, -1.406505134582e-09, -1.905391400214e-09, 1.982666577701e-10, -5.159010170634e-09, 6.091275260200e-09, 1.754455865139e-19, -1.161254442762e-19, -1.789423275524e-19, 4.956666444253e-20, -1.289752542658e-18, 1.522818815050e-18
105, 0.000000000000e+00, 0.000000000000e+00, 1.951579795212e-19, -5.518125000000e-04, -3.962554728787e-10, -1.931368842634e-09, -2.575006874395e-09, 7.216514854293e-10, 3.769077911789e-09, -2.370646635123e-09, 7.314483069390e-20, -1.187476940804e-19, -1.996350777560e-19, 1.804128713573e-19, 9.422694779473e-19, -5.926616587807e-19
106, 0.000000000000e+00, 1.823177129130e-19, 4.101118249861e-19, -5.518125000000e-04, -4.867452219059e-09, -5.968157523739e-09, -1.290175077884e-08, -1.056378414455e-09, -4.145329532332e-10, -3.271978122459e-10, -1.503897259722e-20, -1.526052407937e-19, -1.019275111845e-18, -2.640946036137e-19, -1.036332383083e-19, -8.179945306149e-20
107, 0.000000000000e+00, -3.299655204752e-19, 2.551680227925e-19, -5.518125000000e-04, -3.296850792367e-09, -5.207141384744e-09, -9.825427582655e-09, -3.452470727443e-10, 3.964658336278e-10, 8.266354324438e-10, 4.611762394613e-20, -1.926535793175e-19, -7.698363165878e-19, -8.631176818607e-20, 9.911645840696e-20, 2.066588581109e-19
108, 0.000000000000e+00, 5.956224315686e-20, 7.928695587965e-19, -5.518125000000e-04, -1.564650631281e-09, -2.358735429198e-09, -4.510923190537e-09, 1.722125445737e-10, 6.792844296495e-10, 3.767721021442e-10, 1.534122351109e-20, -8.395555180179e-20, -3.530332408121e-19, 4.305313614343e-20, 1.698211074124e-19, 9.419302553604e-20
109, 0.000000000000e+00, 0.000000000000e+00, 8.520898971567e-19, -5.518125000000e-04, -4.634777894807e-09, -3.431949835431e-09, -8.464411394016e-09, 8.916126426887e-10, -6.482367920613e-09, 1.118928613884e-09, -1.659845804139e-19, -1.553240973354e-20, -6.453315723281e-19, 2.229031606722e-19, -1.620591980153e-18, 2.797321534709e-19
110, 0.000000000000e+00, 0.000000000000e+00, 7.080145604169e-19, -5.518125000000e-04, -9.760015018401e-11, -2.607009719213e-09, -5.198899089010e-09, -6.867591659653e-10, 2.571261523347e-09, -1.069362289770e-10, 1.853218844449e-19, -1.284869238358e-19, -4.519847215888e-19, -1.716897914913e-19, 6.428153808369e-19, -2.673405724425e-20
111, 0.000000000000e+00, -1.064176191784e-19, 3.828753035464e-19, -5.518125000000e-04, -2.994038794668e-09, -2.081481653704e-09, -7.698091053499e-09, 1.242745597614e-10, -9.744687060299e-10, -1.247819696300e-09, -5.494515911222e-20, 5.917858186440e-20, -6.429162049395e-19, 3.106863994035e-20, -2.436171765075e-19, -3.119549240750e-19
112, 0.000000000000e+00, -4.933992783745e-19, 6.546572469922e-19, -5.518125000000e-04, 1.665945603690e-09, 1.886149902930e-09, -6.604778945984e-10, 1.145377176228e-10, -1.025379941413e-09, -4.399238511255e-10, 1.360048478000e-19, 1.634258951190e-19, -1.548639271016e-19, 2.863442940570e-20, -2.563449853532e-19, -1.099809627814e-19
113, 0.000000000000e+00, 6.769537706992e-20, 6.973849597370e-19, -5.518125000000e-04, -2.339991311828e-09, -9.776144338502e-10, -4.345693582763e-09, 7.765837555641e-10, 1.253257386223e-09, 2.413503411051e-10, -1.008848237619e-19, 6.939120675710e-20, -3.518065319637e-19, 1.941459388910e-19, 3.133143465558e-19, 6.033758527627e-20
114, 0.000000000000e+00, 0.000000000000e+00, 7.416519687469e-19, -5.518125000000e-04, -5.506706202141e-10, -1.182982600767e-10, 3.747402388399e-09, 1.568373252461e-10, -5.479161756938e-09, 5.325582083474e-10, -1.456716142967e-19, -9.178439730851e-20, 3.914433725560e-19, 3.920933131152e-20, -1.369790439235e-18, 1.331395520868e-19
115, 0.000000000000e+00, 0.000000000000e+00, 7.110602302715e-19, -5.518125000000e-04, 3.905483936251e-09, 2.699835022213e-09, 6.114305506344e-09, -8.152727328138e-10, 2.250913940358e-09, 9.034650487109e-10, 1.703415194442e-19, 1.963199113335e-20, 4.458172629416e-19, -2.038181832035e-19, 5.627284850896e-19, 2.258662621777e-19
116, 0.000000000000e+00, -4.174121507413e-19, 1.830374015029e-19, -5.518125000000e-04, 1.036941199573e-09, 1.253550152569e-09, 2.500286200302e-09, 9.161702479614e-10, -1.665540705535e-09, -2.144082070507e-11, 9.819215211822e-21, 3.682933267816e-20, 1.928555054555e-19, 2.290425619904e-19, -4.163851763837e-19, -5.360205176267e-21
117, 0.000000000000e+00, -6.442169155472e-19, 3.774140907681e-19, -5.518125000000e-04, -3.472848675301e-10, -2.516920005746e-10, -7.326335094149e-09, 4.381886268648e-10, -1.370076310637e-09, 1.458982095188e-09, 1.547205214781e-19, 1.666925820103e-19, -7.175808357510e-19, 1.095471567162e-19, -3.425190776593e-19, 3.647455237969e-19
118, 0.000000000000e+00, -5.056119055953e-19, 1.156343865339e-19, -5.518125000000e-04, -8.301697107527e-10, 1.907071833784e-09, -2.292637191204e-10, -4.992948591633e-10, -1.478397622261e-09, -4.913476200180e-11, -1.250206451787e-19, 2.170882673527e-19, -4.960933005726e-20, -1.248237147908e-19, -3.695994055652e-19, -1.228369050045e-20
119, 0.000000000000e+00, 0.000000000000e+00, 6.313145147262e-19, -5.518125000000e-04, 1.030215912579e-10, 4.382549434467e-09, 6.010139941282e-09, 6.346150399903e-10, -7.537199915161e-10, 1.784667433926e-09, -2.493797024667e-19, 2.853572194502e-19, 4.886238596412e-19, 1.586537599976e-19, -1.884299978790e-19, 4.461668584816e-19
120, 0.000000000000e+00, 0.000000000000e+00, 0.000000000000e+00, -5.518125000000e-04, 4.506546247285e-09, 3.913555701729e-09, 1.979060471058e-09, 1.703569055376e-10, -1.824164887426e-10, -2.842587151843e-09, 3.033704821880e-19, 2.291427097076e-19, -1.249373597200e-20, 4.258922638440e-20, -4.560412218566e-20, -7.106467879607e-19
121, 0.000000000000e+00, -8.494120804246e-19, 0.000000000000e+00, -5.518125000000e-04, 2.236674845335e-09, 1.302680630033e-09, 2.543629307183e-09, -1.838128259247e-09, -3.535729477150e-09, -3.241816549234e-09, 1.275439952526e-19, 1.077261831295e-20, 1.660052227720e-19, -4.595320648117e-19, -8.839323692874e-19, -8.104541373084e-19
122, 0.000000000000e+00, -5.826246777803e-19, 0.000000000000e+00, -5.518125000000e-04, 3.236436896259e-09, 2.471381321811e-09, 1.544049155200e-08, -1.582692686530e-09, 1.184613464184e-09, -3.315306329136e-10, -1.242721333260e-19, -2.198771746155e-19, 1.401720413698e-18, -3.956731716324e-19, 2.961533660461e-19, -8.288265822841e-20
123, 0.000000000000e+00, -1.248605921004e-19, 0.000000000000e+00, -5.518125000000e-04, 4.852154233959e-10, -1.266869276151e-09, 3.529976311256e-09, -1.257744519576e-09, -3.645754538446e-10, -3.366062281426e-09, -7.963391524053e-21, -2.270253764181e-19, 3.723106849877e-19, -3.144361298940e-19, -9.114386346115e-20, -8.415155703566e-19
124, 0.000000000000e+00, 0.000000000000e+00, 0.000000000000e+00, -5.518125000000e-04, -3.855461727653e-09, -3.422996996960e-09, -2.405613486189e-10, 4.943509463558e-12, -3.563220790488e-09, -1.456396888177e-09, -2.939874229932e-19, -2.399553805400e-19, 1.574687188505e-19, 1.235877365890e-21, -8.908051976220e-19, -3.640992220443e-19
