NodeID, DISPLACEMENT_X1, DISPLACEMENT_Y1, DISPLACEMENT_Z1, STRESS_XX, STRESS_XY, STRESS_XZ, STRESS_YY, STRESS_YZ, STRESS_ZZ, STRAIN_XX, STRAIN_XY, STRAIN_XZ, STRAIN_YY, STRAIN_YZ, STRAIN_ZZ
0, 0.000000000000e+00, 0.000000000000e+00, 0.000000000000e+00, -4.533406657477e-08, 1.073661318031e-09, -1.816415098001e-08, -5.207936434696e-07, 1.095398065753e-08, -9.999999999995e+05, 9.999999999998e-03, 1.288393581637e-16, -2.179698117601e-15, 9.999999999969e-03, 1.314477678903e-15, -4.999999999997e-02
1, 9.999999999994e-02, 0.000000000000e+00, 0.000000000000e+00, 2.072435260440e-08, -6.787497117210e-08, 3.002035348704e-08, -2.708363657196e-06, 1.366636838418e-08, -9.999999999983e+05, 1.000000000001e-02, -8.144996540653e-15, 3.602442418445e-15, 9.999999999847e-03, 1.639964206102e-15, -4.999999999989e-02
2, 1.000000000011e-01, 9.999999999865e-02, 0.000000000000e+00, 8.516678159746e-07, -1.459047003586e-07, -2.091889788321e-07, -6.393529474735e-07, 1.511847649386e-07, -9.999999999982e+05, 1.000000000003e-02, -1.750856404303e-14, -2.510267745985e-14, 9.999999999942e-03, 1.814217179263e-14, -4.999999999991e-02
3, 0.000000000000e+00, 9.999999999971e-02, 0.000000000000e+00, 2.223217355398e-06, 1.257577393639e-07, -1.533061871895e-08, -3.527845062005e-07, 1.423551429128e-07, -1.000000000000e+06, 1.000000000012e-02, 1.509092872366e-14, -1.839674246273e-15, 9.999999999961e-03, 1.708261714954e-14, -5.000000000002e-02
4, 0.000000000000e+00, 0.000000000000e+00, -4.999999999998e-01, -1.735034553955e-06, 2.255923553672e-08, 1.695903014856e-08, 2.839175673823e-07, -3.651291749661e-08, -1.000000000000e+06, 9.999999999912e-03, 2.707108264407e-15, 2.035083617828e-15, 1.000000000003e-02, -4.381550099593e-15, -4.999999999999e-02
5, 9.999999999953e-02, 0.000000000000e+00, -4.999999999991e-01, 4.206473628680e-08, -6.535043653020e-08, 9.454242944074e-08, -1.981519744731e-06, -1.366154970786e-07, -9.999999999998e+05, 1.000000000002e-02, -7.842052383624e-15, 1.134509153289e-14, 9.999999999899e-03, -1.639385964943e-14, -4.999999999997e-02
6, 1.000000000001e-01, 9.999999999886e-02, -4.999999999989e-01, -7.417596255740e-08, -4.119793578428e-07, 1.848926104812e-07, -7.078366858574e-07, -5.816262787753e-08, -9.999999999991e+05, 9.999999999995e-03, -4.943752294114e-14, 2.218711325774e-14, 9.999999999957e-03, -6.979515345303e-15, -4.999999999995e-02
7, 0.000000000000e+00, 1.000000000001e-01, -5.000000000001e-01, 2.640663296916e-07, 4.188272992312e-08, -8.498789779571e-08, 4.240670629467e-08, -1.585826377622e-08, -1.000000000000e+06, 1.000000000001e-02, 5.025927590774e-15, -1.019854773548e-14, 1.000000000000e-02, -1.902991653147e-15, -5.000000000000e-02
8, 2.499999999973e-02, 0.000000000000e+00, -4.999999999997e-01, -1.437023456674e-06, 3.229868388561e-08, -1.034162854094e-07, 1.292598123352e-07, -1.423870666434e-07, -1.000000000000e+06, 9.999999999928e-03, 3.875842066274e-15, -1.240995424912e-14, 1.000000000002e-02, -1.708644799721e-14, -4.999999999999e-02
9, 4.999999999954e-02, 0.000000000000e+00, -4.999999999996e-01, -1.211558507445e-06, 1.033169378561e-08, -4.130509109900e-08, -4.705871106125e-07, -1.800137007050e-07, -1.000000000000e+06, 9.999999999944e-03, 1.239803254273e-15, -4.956610931880e-15, 9.999999999988e-03, -2.160164408460e-14, -4.999999999998e-02
10, 7.499999999944e-02, 0.000000000000e+00, -4.999999999994e-01, -6.058253347874e-07, 9.867451967880e-08, -1.095718808895e-07, -1.297080113242e-06, -2.472468844245e-07, -1.000000000000e+06, 9.999999999982e-03, 1.184094236146e-14, -1.314862570675e-14, 9.999999999941e-03, -2.966962613093e-14, -4.999999999998e-02
11, 9.999999999949e-02, 2.499999999969e-02, -4.999999999991e-01, -2.779270289466e-07, -1.435321046045e-07, 2.298725446104e-07, -2.139269781765e-06, 2.649308241922e-08, -9.999999999995e+05, 1.000000000000e-02, -1.722385255254e-14, 2.758470535325e-14, 9.999999999891e-03, 3.179169890307e-15, -4.999999999995e-02
12, 9.999999999962e-02, 4.999999999932e-02, -4.999999999991e-01, -2.865417627618e-07, -2.662276504574e-07, 1.572671391263e-07, -2.498127287254e-06, -2.995204875018e-07, -9.999999999999e+05, 1.000000000001e-02, -3.194731805489e-14, 1.887205669515e-14, 9.999999999877e-03, -3.594245850021e-14, -4.999999999997e-02
13, 9.999999999976e-02, 7.499999999897e-02, -4.999999999990e-01, -3.082160320547e-07, -7.199909553588e-07, 3.388348629452e-07, -1.766705989010e-06, -3.467623886078e-07, -9.999999999997e+05, 1.000000000000e-02, -8.639891464305e-14, 4.066018355342e-14, 9.999999999912e-03, -4.161148663294e-14, -4.999999999997e-02
14, 7.500000000013e-02, 9.999999999931e-02, -4.999999999994e-01, 4.337683397656e-08, 3.366206811751e-08, 1.485212416015e-07, -5.529048697402e-07, -1.125401855040e-08, -9.999999999996e+05, 1.000000000000e-02, 4.039448174102e-15, 1.782254899219e-14, 9.999999999968e-03, -1.350482226048e-15, -4.999999999998e-02
15, 5.000000000010e-02, 9.999999999980e-02, -4.999999999998e-01, 3.552672246264e-07, -1.039444700580e-07, 8.987152585912e-08, -1.638319291588e-07, 1.199689781673e-08, -1.000000000000e+06, 1.000000000002e-02, -1.247333640696e-14, 1.078458310309e-14, 9.999999999988e-03, 1.439627738008e-15, -5.000000000000e-02
16, 2.500000000004e-02, 1.000000000001e-01, -5.000000000001e-01, 3.083182188372e-07, -1.197995213833e-08, 3.494431788684e-08, 1.888450545569e-08, 1.572334083920e-08, -1.000000000000e+06, 1.000000000002e-02, -1.437594256600e-15, 4.193318146421e-15, 1.000000000000e-02, 1.886800900704e-15, -5.000000000002e-02
17, 0.000000000000e+00, 7.500000000012e-02, -5.000000000001e-01, -7.182340292881e-07, -3.100426695857e-08, 1.387899247689e-07, -2.415472408757e-07, -1.868200810101e-08, -1.000000000000e+06, 9.999999999971e-03, -3.720512035029e-15, 1.665479097227e-14, 1.000000000000e-02, -2.241840972121e-15, -5.000000000001e-02
18, 0.000000000000e+00, 5.000000000011e-02, -5.000000000000e-01, -1.302583162518e-06, -4.306010571980e-08, 6.993540705073e-08, -2.420808111007e-07, -3.055040788248e-09, -1.000000000000e+06, 9.999999999940e-03, -5.167212686376e-15, 8.392248846088e-15, 1.000000000000e-02, -3.666048945898e-16, -5.000000000000e-02
19, 0.000000000000e+00, 2.500000000010e-02, -4.999999999998e-01, -1.618117999492e-06, -9.998961989555e-08, -7.286087062100e-08, 9.261485603121e-08, 1.141062553087e-07, -1.000000000000e+06, 9.999999999918e-03, -1.199875438747e-14, -8.743304474521e-15, 1.000000000002e-02, 1.369275063704e-14, -4.999999999999e-02
20, 2.499999999994e-02, 0.000000000000e+00, 0.000000000000e+00, -7.007232246300e-08, 1.445181262469e-08, -8.386002636905e-09, -5.727997631766e-07, -3.612651988903e-09, -9.999999999994e+05, 9.999999999996e-03, 1.734217514963e-15, -1.006320316429e-15, 9.999999999966e-03, -4.335182386683e-16, -4.999999999996e-02
21, 4.999999999990e-02, 0.000000000000e+00, 0.000000000000e+00, -2.957506997821e-07, -2.534488220183e-08, -1.008187553503e-08, -7.820320509685e-07, -6.478860898776e-09, -9.999999999989e+05, 9.999999999982e-03, -3.041385864220e-15, -1.209825064204e-15, 9.999999999953e-03, -7.774633078531e-16, -4.999999999994e-02
22, 7.499999999988e-02, 0.000000000000e+00, 0.000000000000e+00, -2.365632099099e-07, 3.297390090526e-08, 2.135998746704e-08, -1.695072569419e-06, -7.714399624505e-09, -9.999999999985e+05, 9.999999999990e-03, 3.956868108631e-15, 2.563198496045e-15, 9.999999999903e-03, -9.257279549405e-16, -4.999999999991e-02
23, 9.999999999997e-02, 2.499999999952e-02, 0.000000000000e+00, -1.102824979979e-07, -2.390226086116e-07, 4.385035608800e-08, -2.399499256474e-06, 2.382572421891e-07, -9.999999999985e+05, 1.000000000000e-02, -2.868271303339e-14, 5.262042730560e-15, 9.999999999866e-03, 2.859086906269e-14, -4.999999999990e-02
24, 1.000000000001e-01, 4.999999999916e-02, 0.000000000000e+00, -1.367637499546e-08, -3.048300664742e-07, 1.820857315235e-09, -2.181562498057e-06, 2.770272075972e-07, -9.999999999978e+05, 9.999999999999e-03, -3.657960797691e-14, 2.185028778282e-16, 9.999999999869e-03, 3.324326491166e-14, -4.999999999987e-02
25, 1.000000000004e-01, 7.499999999884e-02, 0.000000000000e+00, -2.116091006125e-08, -2.216109240560e-07, -5.271601779714e-08, -2.068676015673e-06, 3.218492547850e-07, -9.999999999983e+05, 1.000000000000e-02, -2.659331088672e-14, -6.325922135656e-15, 9.999999999880e-03, 3.862191057420e-14, -4.999999999989e-02
26, 7.500000000096e-02, 9.999999999914e-02, 0.000000000000e+00, 1.765836107855e-06, 4.623534387139e-07, -3.192155992476e-07, -7.350638043135e-07, 2.609281864837e-07, -9.999999999989e+05, 1.000000000008e-02, 5.548241264567e-14, -3.830587190971e-14, 9.999999999935e-03, 3.131138237804e-14, -4.999999999996e-02
27, 5.000000000062e-02, 9.999999999951e-02, 0.000000000000e+00, 2.273833767201e-06, 2.617585289468e-07, -2.002486497100e-07, -4.073372110724e-07, 2.003880082230e-07, -9.999999999995e+05, 1.000000000011e-02, 3.141102347362e-14, -2.402983796520e-14, 9.999999999952e-03, 2.404656098675e-14, -4.999999999999e-02
28, 2.500000000030e-02, 9.999999999973e-02, 0.000000000000e+00, 2.348911948502e-06, 1.380158044178e-07, -3.484926949639e-08, -1.230509951711e-08, -8.076703850477e-09, -9.999999999998e+05, 1.000000000012e-02, 1.656189653014e-14, -4.181912339566e-15, 9.999999999974e-03, -9.692044620572e-16, -5.000000000001e-02
29, 0.000000000000e+00, 7.499999999984e-02, 0.000000000000e+00, 1.504888738661e-06, 1.057503693988e-08, 5.173300782742e-10, -3.327004378662e-07, 1.001471523379e-08, -9.999999999999e+05, 1.000000000008e-02, 1.269004432786e-15, 6.207960939290e-17, 9.999999999967e-03, 1.201765828055e-15, -5.000000000001e-02
30, 0.000000000000e+00, 4.999999999988e-02, 0.000000000000e+00, 5.211792692232e-07, 3.914993811391e-08, -2.278330398570e-09, -1.063963281922e-07, 3.664001008461e-08, -9.999999999997e+05, 1.000000000002e-02, 4.697992573669e-15, -2.733996478284e-16, 9.999999999986e-03, 4.396801210153e-15, -4.999999999999e-02
31, 0.000000000000e+00, 2.499999999991e-02, 0.000000000000e+00, -1.528193630899e-08, 7.559238246931e-08, 3.008661028647e-10, -3.413030450853e-07, 1.101651804117e-07, -9.999999999995e+05, 9.999999999997e-03, 9.071085896317e-15, 3.610393234377e-17, 9.999999999978e-03, 1.321982164941e-14, -4.999999999997e-02
32, 9.999999999989e-02, 0.000000000000e+00, -1.249999999995e-01, -1.403968781233e-07, 8.823207162960e-08, 1.275581925965e-07, -2.414975218320e-06, -1.248605997120e-07, -9.999999999985e+05, 1.000000000000e-02, 1.058784859555e-14, 1.530698311158e-14, 9.999999999866e-03, -1.498327196544e-14, -4.999999999990e-02
33, 9.999999999987e-02, 0.000000000000e+00, -2.499999999991e-01, -5.771289579570e-08, 2.089859920920e-08, 1.238664841992e-07, -2.002586067344e-06, -9.215116131587e-08, -9.999999999987e+05, 1.000000000000e-02, 2.507831905104e-15, 1.486397810391e-14, 9.999999999887e-03, -1.105813935790e-14, -4.999999999991e-02
34, 9.999999999970e-02, 0.000000000000e+00, -3.749999999991e-01, -2.375818439759e-07, 1.116064163829e-07, 7.687234336738e-08, -2.392844180577e-06, -5.652307325891e-08, -9.999999999991e+05, 1.000000000000e-02, 1.339276996595e-14, 9.224681204086e-15, 9.999999999874e-03, -6.782768791069e-15, -4.999999999993e-02
35, 0.000000000000e+00, 0.000000000000e+00, -3.749999999998e-01, -1.001225124734e-06, 2.036643664287e-09, 4.702064355162e-08, -1.679703321618e-07, -2.721407686393e-08, -1.000000000000e+06, 9.999999999952e-03, 2.443972397144e-16, 5.642477226194e-15, 1.000000000000e-02, -3.265689223671e-15, -4.999999999999e-02
36, 0.000000000000e+00, 0.000000000000e+00, -2.499999999998e-01, -3.899112925865e-07, 2.386750615819e-09, -3.310189699506e-08, -2.656500631322e-07, -8.283063663973e-08, -9.999999999998e+05, 9.999999999981e-03, 2.864100738983e-16, -3.972227639408e-15, 9.999999999988e-03, -9.939676396768e-15, -4.999999999998e-02
37, 0.000000000000e+00, 0.000000000000e+00, -1.249999999999e-01, -1.079097273760e-07, 2.864100738983e-10, -1.450542039878e-08, -3.436313515219e-07, -7.462623786672e-09, -9.999999999995e+05, 9.999999999993e-03, 3.436920886779e-17, -1.740650447853e-15, 9.999999999979e-03, -8.955148544006e-16, -4.999999999997e-02
38, 1.000000000010e-01, 9.999999999863e-02, -1.249999999995e-01, 1.132493101371e-06, 7.476959348730e-08, -1.220124984843e-07, -1.224104683691e-06, 1.793330626745e-07, -9.999999999983e+05, 1.000000000005e-02, 8.972351218476e-15, -1.464149981811e-14, 9.999999999910e-03, 2.151996752094e-14, -4.999999999991e-02
39, 1.000000000008e-01, 9.999999999892e-02, -2.499999999991e-01, 7.743817857570e-07, -2.090157072626e-07, 1.580786845302e-07, -6.520907239368e-07, 1.781127328959e-07, -9.999999999978e+05, 1.000000000002e-02, -2.508188487152e-14, 1.896944214362e-14, 9.999999999937e-03, 2.137352794751e-14, -4.999999999989e-02
40, 1.000000000005e-01, 9.999999999896e-02, -3.749999999990e-01, 5.976840232809e-07, -4.636530357180e-08, 3.003635149243e-07, -6.389222107828e-07, 2.303847699034e-07, -9.999999999978e+05, 1.000000000001e-02, -5.563836428616e-15, 3.604362179092e-14, 9.999999999940e-03, 2.764617238841e-14, -4.999999999989e-02
41, 0.000000000000e+00, 1.000000000000e-01, -3.750000000001e-01, 1.241683882351e-06, 1.077600585924e-08, 1.477117039794e-08, 5.562712127964e-09, 1.140166279291e-07, -9.999999999998e+05, 1.000000000006e-02, 1.293120703109e-15, 1.772540447753e-15, 9.999999999986e-03, 1.368199535149e-14, -5.000000000000e-02
42, 0.000000000000e+00, 9.999999999987e-02, -2.500000000001e-01, 1.574093605288e-06, 6.882652801882e-08, -3.155475897057e-08, -8.416181016299e-08, 4.636209112092e-08, -9.999999999999e+05, 1.000000000008e-02, 8.259183362258e-15, -3.786571076469e-15, 9.999999999979e-03, 5.563450934511e-15, -5.000000000001e-02
43, 0.000000000000e+00, 9.999999999978e-02, -1.250000000001e-01, 2.021443409224e-06, 5.954751545251e-08, -2.225746593205e-08, -1.550826709718e-07, 2.800421931385e-08, -1.000000000000e+06, 1.000000000010e-02, 7.145701854302e-15, -2.670895911846e-15, 9.999999999972e-03, 3.360506317662e-15, -5.000000000002e-02
44, 4.418725957889e-02, 4.972251362332e-02, -4.999999999997e-01, -8.368410934240e-07, -2.560142343255e-07, -6.581570521249e-09, -5.993172705460e-07, -2.280308835868e-08, -1.000000000000e+06, 9.999999999964e-03, -3.072170811906e-14, -7.897884625499e-16, 9.999999999978e-03, -2.736370603041e-15, -4.999999999998e-02
45, 3.998662542280e-02, 7.426298142458e-02, -4.999999999998e-01, -3.731991641988e-07, -2.321095224261e-07, -1.140015417655e-08, -1.567994984679e-07, -8.156934811241e-08, -1.000000000000e+06, 9.999999999983e-03, -2.785314269113e-14, -1.368018501187e-15, 9.999999999996e-03, -9.788321773489e-15, -4.999999999999e-02
46, 6.686870171150e-02, 2.138156420045e-02, -4.999999999995e-01, -9.322432257856e-07, -1.406932115660e-07, -5.424624869669e-08, -1.299174618907e-06, -6.104516005344e-08, -1.000000000000e+06, 9.999999999967e-03, -1.688318538792e-14, -6.509549843603e-15, 9.999999999945e-03, -7.325419206413e-15, -4.999999999998e-02
47, 8.306094644166e-02, 3.651556861662e-02, -4.999999999994e-01, -7.903605971175e-07, -2.304655429653e-07, -8.156814344333e-08, -1.904582556260e-06, -9.686744076618e-08, -1.000000000000e+06, 9.999999999980e-03, -2.765586515583e-14, -9.788177213199e-15, 9.999999999913e-03, -1.162409289194e-14, -4.999999999997e-02
48, 3.996040240318e-02, 2.559186234075e-02, -4.999999999997e-01, -1.204069445117e-06, -1.258419005575e-07, -5.376938044116e-08, -4.837328257660e-07, -4.839798186703e-08, -1.000000000000e+06, 9.999999999946e-03, -1.510102806690e-14, -6.452325652939e-15, 9.999999999989e-03, -5.807757824044e-15, -4.999999999999e-02
49, 7.891241338911e-02, 5.910390710624e-02, -4.999999999995e-01, -5.863971420608e-07, -4.072261638900e-07, -3.936462735362e-08, -1.718078800921e-06, -1.854278277441e-07, -1.000000000000e+06, 9.999999999988e-03, -4.886713966680e-14, -4.723755282435e-15, 9.999999999920e-03, -2.225133932929e-14, -4.999999999998e-02
50, 7.200461764457e-02, 8.213735609316e-02, -4.999999999995e-01, -2.554533744438e-07, -3.280235803597e-07, -1.399648786788e-08, -9.428392837031e-07, -2.119433743734e-07, -1.000000000000e+06, 9.999999999997e-03, -3.936282964316e-14, -1.679578544146e-15, 9.999999999955e-03, -2.543320492481e-14, -4.999999999999e-02
51, 5.774960429694e-02, 6.192010943305e-02, -4.999999999996e-01, -6.299233064055e-07, -3.666647838526e-07, -6.429009110790e-08, -7.515052510869e-07, -1.874334296676e-07, -9.999999999998e+05, 9.999999999974e-03, -4.399977406232e-14, -7.714810932948e-15, 9.999999999967e-03, -2.249201156012e-14, -4.999999999998e-02
52, 6.127040566028e-02, 4.118605240569e-02, -4.999999999996e-01, -9.077009356891e-07, -2.964413533319e-07, -7.503594582101e-08, -1.109192574707e-06, -4.044700531293e-08, -1.000000000000e+06, 9.999999999966e-03, -3.557296239983e-14, -9.004313498521e-15, 9.999999999954e-03, -4.853640637551e-15, -4.999999999998e-02
53, 1.664086170350e-02, 7.939298569962e-02, -5.000000000000e-01, -2.429766867023e-07, -3.050840663165e-08, 5.609402573253e-08, -5.901734440182e-08, 1.338109347922e-10, -1.000000000000e+06, 9.999999999990e-03, -3.661008795798e-15, 6.731283087904e-15, 1.000000000000e-02, 1.605731217507e-17, -5.000000000001e-02
54, 8.498592963031e-02, 1.657942656335e-02, -4.999999999993e-01, -4.083814212319e-07, -1.798222130789e-07, -5.129480944937e-08, -1.809271369976e-06, -8.949793242366e-08, -9.999999999999e+05, 9.999999999997e-03, -2.157866556947e-14, -6.155377133924e-15, 9.999999999913e-03, -1.073975189084e-14, -4.999999999997e-02
55, 2.189644987258e-02, 5.235290615554e-02, -4.999999999999e-01, -1.055485485360e-06, -1.290161317679e-07, -4.699367749760e-11, -2.184182775613e-07, -9.549133800879e-09, -1.000000000000e+06, 9.999999999951e-03, -1.548193581215e-14, -5.639241299712e-18, 1.000000000000e-02, -1.145896056105e-15, -5.000000000000e-02
56, 1.447614204590e-02, 2.549079474945e-02, -4.999999999998e-01, -1.478602320680e-06, -6.920720263021e-08, -3.216010302112e-08, -4.710940023263e-08, 2.419858937716e-08, -1.000000000000e+06, 9.999999999928e-03, -8.304864315625e-15, -3.859212362535e-15, 1.000000000001e-02, 2.903830725259e-15, -4.999999999999e-02
57, 4.180401708862e-02, 1.978840699810e-02, 0.000000000000e+00, -7.532556386044e-08, -2.030451665213e-08, 8.230299158245e-10, -6.207313466196e-07, -1.481309288195e-08, -9.999999999991e+05, 9.999999999994e-03, -2.436541998256e-15, 9.876358989894e-17, 9.999999999961e-03, -1.777571145833e-15, -4.999999999995e-02
58, 2.163069550521e-02, 6.523657748886e-02, 0.000000000000e+00, 9.720533853397e-07, 1.179494508429e-07, 7.278761168254e-09, -2.743297955021e-07, 5.031529301998e-08, -9.999999999997e+05, 1.000000000005e-02, 1.415393410115e-14, 8.734513401905e-16, 9.999999999973e-03, 6.037835162398e-15, -4.999999999999e-02
59, 8.044904144512e-02, 6.515165955014e-02, 0.000000000000e+00, 1.766311470419e-07, -2.171297056601e-07, -3.264964414441e-08, -1.336158473148e-06, 2.476036923477e-07, -9.999999999985e+05, 1.000000000001e-02, -2.605556467921e-14, -3.917957297329e-15, 9.999999999916e-03, 2.971244308173e-14, -4.999999999991e-02
60, 6.466893692047e-02, 8.245050090398e-02, 0.000000000000e+00, 1.319215193184e-06, 1.912488461065e-07, -1.380491340109e-07, -6.830838780540e-07, 1.987964538076e-07, -9.999999999989e+05, 1.000000000006e-02, 2.294986153278e-14, -1.656589608131e-14, 9.999999999941e-03, 2.385557445691e-14, -4.999999999995e-02
61, 4.078217261954e-02, 7.842750987966e-02, 0.000000000000e+00, 1.403654459864e-06, 1.803391219793e-07, 2.563535803388e-09, -3.023836244312e-07, 5.360765361710e-08, -9.999999999994e+05, 1.000000000007e-02, 2.164069463752e-14, 3.076242964066e-16, 9.999999999965e-03, 6.432918434052e-15, -4.999999999998e-02
62, 4.545830566329e-02, 4.820467332840e-02, 0.000000000000e+00, 3.369731040528e-07, 3.495773604706e-08, 3.040723759560e-08, -5.896271875080e-07, 2.035603478869e-08, -9.999999999992e+05, 1.000000000001e-02, 4.194928325647e-15, 3.648868511472e-15, 9.999999999959e-03, 2.442724174643e-15, -4.999999999996e-02
63, 7.612190126548e-02, 4.154319510669e-02, 0.000000000000e+00, 6.527148394121e-08, -2.170074819429e-07, 3.287887259262e-08, -1.632400219225e-06, 1.084200566260e-07, -9.999999999985e+05, 1.000000000001e-02, -2.604089783315e-14, 3.945464711114e-15, 9.999999999903e-03, 1.301040679512e-14, -4.999999999991e-02
64, 1.692308505517e-02, 8.526660336334e-02, 0.000000000000e+00, 1.744918391165e-06, 1.164471737418e-07, -2.255036479167e-08, -1.629241248311e-07, 4.775888666724e-08, -9.999999999998e+05, 1.000000000009e-02, 1.397366084901e-14, -2.706043775001e-15, 9.999999999972e-03, 5.731066400069e-15, -5.000000000001e-02
65, 8.342762233265e-02, 8.507180447487e-02, 0.000000000000e+00, 5.687082496782e-07, 2.758277252863e-07, -1.488153147093e-07, -9.823782386741e-07, 2.064491263235e-07, -9.999999999985e+05, 1.000000000002e-02, 3.309932703436e-14, -1.785783776512e-14, 9.999999999930e-03, 2.477389515882e-14, -4.999999999992e-02
66, 2.057265433753e-02, 3.782131471432e-02, 0.000000000000e+00, 2.928669952477e-07, 6.569559573372e-08, 2.754811439040e-08, -2.514078958137e-07, 5.939595087262e-08, -9.999999999995e+05, 1.000000000001e-02, 7.883471488047e-15, 3.305773726848e-15, 9.999999999979e-03, 7.127514104715e-15, -4.999999999997e-02
67, 6.029501194738e-02, 6.283588624197e-02, 0.000000000000e+00, 5.059571574546e-07, -3.263234375789e-08, 3.314713901164e-09, -7.045379822591e-07, 1.055897803178e-07, -9.999999999989e+05, 1.000000000002e-02, -3.915881250947e-15, 3.977656681397e-16, 9.999999999949e-03, 1.267077363813e-14, -4.999999999994e-02
68, 1.800259893295e-02, 1.706385385414e-02, 0.000000000000e+00, -9.750665137262e-09, 1.476814777370e-10, 3.028127385835e-08, -5.065865645354e-07, 5.949343128657e-08, -9.999999999994e+05, 9.999999999999e-03, 1.772177732844e-17, 3.633752863002e-15, 9.999999999969e-03, 7.139211754388e-15, -4.999999999997e-02
69, 6.017684480343e-02, 2.440725508662e-02, 0.000000000000e+00, -1.100415829569e-07, -9.204237969789e-08, 5.988048598637e-09, -1.026585232466e-06, -1.773146396301e-08, -9.999999999988e+05, 9.999999999993e-03, -1.104508556375e-14, 7.185658318365e-16, 9.999999999938e-03, -2.127775675561e-15, -4.999999999993e-02
70, 7.688312434474e-02, 1.515840836548e-02, 0.000000000000e+00, -2.495926861284e-07, -6.202512549585e-08, 6.872418073736e-09, -1.752568288904e-06, 5.806461162052e-08, -9.999999999985e+05, 9.999999999990e-03, -7.443015059502e-15, 8.246901688483e-16, 9.999999999900e-03, 6.967753394462e-15, -4.999999999991e-02
71, 8.073616199351e-02, 0.000000000000e+00, -3.214094746977e-01, -2.840533852577e-07, 3.505629187788e-08, 6.529595537103e-08, -1.570068222160e-06, -6.741039054119e-08, -9.999999999991e+05, 9.999999999993e-03, 4.206755025345e-15, 7.835514644524e-15, 9.999999999916e-03, -8.089246864943e-15, -4.999999999994e-02
72, 6.202534448044e-02, 0.000000000000e+00, -1.142234612468e-01, -2.500323009574e-07, 9.565213044209e-09, 7.013037270251e-08, -1.094272981087e-06, -6.031890522042e-08, -9.999999999988e+05, 9.999999999987e-03, 1.147825565305e-15, 8.415644724301e-15, 9.999999999936e-03, -7.238268626450e-15, -4.999999999993e-02
73, 1.898184509039e-02, 0.000000000000e+00, -3.106566124277e-01, -6.726768333465e-07, 1.034707482834e-08, 1.058842597623e-07, -2.600399533375e-07, -1.356123519257e-07, -9.999999999998e+05, 9.999999999967e-03, 1.241648979400e-15, 1.270611117148e-14, 9.999999999992e-03, -1.627348223108e-14, -4.999999999998e-02
74, 6.568211639850e-02, 0.000000000000e+00, -4.038296156372e-01, -6.657724346345e-07, 2.617947694083e-08, 5.116711452683e-09, -1.156020637912e-06, -1.856898604787e-07, -9.999999999998e+05, 9.999999999976e-03, 3.141537232900e-15, 6.140053743220e-16, 9.999999999947e-03, -2.228278325744e-14, -4.999999999997e-02
75, 3.930458833093e-02, 0.000000000000e+00, -3.755785860692e-01, -8.236287006487e-07, -1.671204560821e-10, 3.090129513103e-08, -5.035915158012e-07, -1.464886910743e-07, -1.000000000000e+06, 9.999999999964e-03, -2.005445472985e-17, 3.708155415724e-15, 9.999999999983e-03, -1.757864292891e-14, -4.999999999999e-02
76, 8.149128819863e-02, 0.000000000000e+00, -1.903676937715e-01, -1.524676918052e-07, 3.704907052927e-08, 1.789130347218e-07, -1.654297294509e-06, -5.958354760666e-08, -9.999999999988e+05, 9.999999999997e-03, 4.445888463512e-15, 2.146956416661e-14, 9.999999999907e-03, -7.150025712799e-15, -4.999999999992e-02
77, 6.225357225209e-02, 0.000000000000e+00, -2.688999131928e-01, -3.224281716116e-07, -3.902977237313e-09, 4.903416187195e-08, -9.891740600800e-07, -1.504962965591e-07, -9.999999999995e+05, 9.999999999989e-03, -4.683572684775e-16, 5.884099424634e-15, 9.999999999949e-03, -1.805955558709e-14, -4.999999999996e-02
78, 3.911237834612e-02, 0.000000000000e+00, -2.231720187641e-01, -3.298523046801e-07, -1.167550214495e-09, 1.998879296394e-07, -5.849894174996e-07, -1.542960738118e-07, -9.999999999995e+05, 9.999999999984e-03, -1.401060257394e-16, 2.398655155673e-14, 9.999999999969e-03, -1.851552885742e-14, -4.999999999996e-02
79, 1.858160180302e-02, 0.000000000000e+00, -1.807374735912e-01, -2.311401961682e-07, -1.119639521271e-08, 5.838132551019e-08, -3.664463292807e-07, -5.980218249614e-08, -9.999999999995e+05, 9.999999999987e-03, -1.343567425526e-15, 7.005759061223e-15, 9.999999999979e-03, -7.176261899537e-15, -4.999999999997e-02
80, 3.537054896119e-02, 0.000000000000e+00, -1.010853038998e-01, -1.719667731474e-07, 6.679588884321e-10, 7.147626915492e-08, -5.491921911016e-07, 2.629021614606e-08, -9.999999999991e+05, 9.999999999988e-03, 8.015506661185e-17, 8.577152298591e-15, 9.999999999966e-03, 3.154825937527e-15, -4.999999999995e-02
81, 8.428365567814e-02, 0.000000000000e+00, -4.200478180665e-01, -3.258808133885e-07, 3.650705631820e-08, 4.372911695617e-08, -1.766118937387e-06, -1.784782109616e-07, -9.999999999996e+05, 9.999999999997e-03, 4.380846758184e-15, 5.247494034741e-15, 9.999999999911e-03, -2.141738531539e-14, -4.999999999996e-02
82, 1.665728668420e-02, 0.000000000000e+00, -4.122470396993e-01, -1.164586247989e-06, 4.519671980599e-09, 4.811512647955e-08, -9.503811738934e-08, -1.323523922333e-07, -1.000000000000e+06, 9.999999999943e-03, 5.423606376719e-16, 5.773815177546e-15, 1.000000000001e-02, -1.588228706799e-14, -4.999999999999e-02
83, 8.370332653576e-02, 0.000000000000e+00, -8.591823100355e-02, -1.474064915921e-07, -3.785782100966e-09, 7.122113119520e-08, -1.999231189433e-06, -2.704595708008e-08, -9.999999999985e+05, 9.999999999997e-03, -4.542938521159e-16, 8.546535743424e-15, 9.999999999886e-03, -3.245514849610e-15, -4.999999999990e-02
84, 1.579043015284e-02, 0.000000000000e+00, -8.136455549817e-02, -6.193726289052e-08, -1.181847294069e-09, 8.802650823622e-09, -4.459137993830e-07, -4.239130105328e-09, -9.999999999994e+05, 9.999999999995e-03, -1.418216752883e-16, 1.056318098835e-15, 9.999999999972e-03, -5.086956126394e-16, -4.999999999997e-02
85, 1.000000000001e-01, 4.433401415983e-02, -1.796727110342e-01, -1.505153098454e-08, -1.828567197351e-07, 2.016587429932e-07, -1.846901189613e-06, 3.329269398988e-07, -9.999999999988e+05, 1.000000000001e-02, -2.194280636821e-14, 2.419904915919e-14, 9.999999999896e-03, 3.995123278785e-14, -4.999999999992e-02
86, 1.000000000002e-01, 5.895401558742e-02, -1.057348276522e-01, 5.450500692758e-09, -2.205404249943e-07, 2.088141259698e-07, -2.064418772029e-06, 2.712829940594e-07, -9.999999999983e+05, 1.000000000000e-02, -2.646485099932e-14, 2.505769511638e-14, 9.999999999880e-03, 3.255395928713e-14, -4.999999999990e-02
87, 9.999999999982e-02, 2.024225245627e-02, -3.391605253203e-01, -5.432423980286e-08, -4.892167159416e-08, 2.890482991846e-07, -1.885649786952e-06, -9.262459626452e-09, -9.999999999988e+05, 1.000000000000e-02, -5.870600591299e-15, 3.468579590216e-14, 9.999999999895e-03, -1.111495155174e-15, -4.999999999992e-02
88, 9.999999999997e-02, 2.371102299152e-02, -1.028664338721e-01, -5.767062594671e-08, -1.174074573164e-07, 5.930732164741e-08, -2.304751736422e-06, 1.526408764218e-07, -9.999999999984e+05, 1.000000000000e-02, -1.408889487797e-14, 7.116878597689e-15, 9.999999999870e-03, 1.831690517062e-14, -4.999999999990e-02
89, 9.999999999975e-02, 3.608073999231e-02, -4.204168487409e-01, -6.067744430362e-08, -1.295029300489e-07, 2.876422495895e-07, -2.078310191993e-06, -1.183286204360e-07, -9.999999999995e+05, 1.000000000001e-02, -1.554035160587e-14, 3.451706995074e-14, 9.999999999892e-03, -1.419943445232e-14, -4.999999999995e-02
90, 9.999999999995e-02, 4.242131735089e-02, -3.029976072694e-01, 1.908726214121e-09, -1.959308928771e-07, 2.403754519891e-07, -1.669120845488e-06, 1.524890199965e-08, -9.999999999988e+05, 1.000000000000e-02, -2.351170714525e-14, 2.884505423869e-14, 9.999999999905e-03, 1.829868239958e-15, -4.999999999992e-02
91, 1.000000000003e-01, 8.145279513636e-02, -2.965155385931e-01, 1.836534855621e-07, -1.748293212691e-07, 4.477451223661e-07, -1.027239098524e-06, 1.024163186467e-07, -9.999999999983e+05, 1.000000000000e-02, -2.097951855229e-14, 5.372941468394e-14, 9.999999999930e-03, 1.228995823761e-14, -4.999999999991e-02
92, 9.999999999997e-02, 6.207660988476e-02, -3.798335608252e-01, 2.574101513760e-08, -2.693149435224e-07, 2.797245985627e-07, -1.791914021879e-06, -1.551745194180e-08, -9.999999999994e+05, 1.000000000001e-02, -3.231779322269e-14, 3.356695182753e-14, 9.999999999904e-03, -1.862094233016e-15, -4.999999999995e-02
93, 9.999999999993e-02, 2.178476782642e-02, -2.166162129158e-01, 1.216944332959e-08, -6.032340265165e-08, 1.404609011727e-07, -1.928751266354e-06, 6.240667704827e-08, -9.999999999985e+05, 1.000000000000e-02, -7.238808318198e-15, 1.685530814073e-14, 9.999999999888e-03, 7.488801245792e-15, -4.999999999990e-02
94, 1.000000000001e-01, 6.193389387967e-02, -2.319752112936e-01, 1.615262590349e-08, -2.202205351589e-07, 2.502700014821e-07, -1.590973826953e-06, 2.275688157720e-07, -9.999999999988e+05, 1.000000000000e-02, -2.642646421907e-14, 3.003240017785e-14, 9.999999999908e-03, 2.730825789264e-14, -4.999999999992e-02
95, 1.000000000002e-01, 8.403176047591e-02, -4.014969208736e-01, 1.777378388513e-07, -2.414431131284e-07, 5.571260896826e-07, -1.009505164499e-06, 2.338503619143e-08, -9.999999999990e+05, 1.000000000001e-02, -2.897317357541e-14, 6.685513076192e-14, 9.999999999937e-03, 2.806204342972e-15, -4.999999999994e-02
96, 9.999999999968e-02, 1.626459848965e-02, -4.269154748117e-01, -4.726030898315e-08, -4.845975462044e-08, 2.707191252721e-07, -1.964527958383e-06, 1.642510073425e-07, -9.999999999995e+05, 1.000000000001e-02, -5.815170554453e-15, 3.248629503265e-14, 9.999999999898e-03, 1.971012088110e-14, -4.999999999996e-02
97, 1.000000000001e-01, 4.178167890719e-02, -8.197350501710e-02, -4.885915779706e-09, -1.567877903476e-07, 2.031935050913e-07, -2.018562306396e-06, 3.741612361551e-07, -9.999999999982e+05, 1.000000000000e-02, -1.881453484171e-14, 2.438322061095e-14, 9.999999999881e-03, 4.489934833862e-14, -4.999999999989e-02
98, 1.000000000005e-01, 8.247724351400e-02, -1.441750825054e-01, 1.767281598101e-07, -2.261922451379e-07, 3.911773093173e-09, -1.711228191305e-06, 4.507460163162e-07, -9.999999999983e+05, 1.000000000001e-02, -2.714306941655e-14, 4.694127711807e-16, 9.999999999896e-03, 5.408952195794e-14, -4.999999999990e-02
99, 0.000000000000e+00, 4.999999999995e-02, -2.499999999999e-01, 1.545331309526e-07, 4.238771793499e-08, -4.393076002688e-08, -1.186727343175e-07, -4.325521867326e-08, -9.999999999999e+05, 1.000000000001e-02, 5.086526152199e-15, -5.271691203226e-15, 9.999999999992e-03, -5.190626240791e-15, -5.000000000000e-02
100, 0.000000000000e+00, 1.837989831347e-02, -1.855163690475e-01, -2.215706950261e-07, -9.105491245257e-09, -7.478317947749e-08, -2.595242457809e-07, 1.811059340047e-08, -9.999999999996e+05, 9.999999999988e-03, -1.092658949431e-15, -8.973981537299e-15, 9.999999999985e-03, 2.173271208056e-15, -4.999999999998e-02
101, 0.000000000000e+00, 3.710327380957e-02, -4.081005084325e-01, -9.557126624579e-07, -3.442554178738e-08, 2.959784090432e-08, -5.783577863541e-08, -7.896980608872e-08, -1.000000000000e+06, 9.999999999955e-03, -4.131065014486e-15, 3.551740908518e-15, 1.000000000001e-02, -9.476376730647e-15, -5.000000000000e-02
102, 0.000000000000e+00, 8.162010168646e-02, -3.144836309524e-01, 8.533703900563e-07, 7.514925034910e-08, 3.134701733673e-08, -6.178258142124e-08, 1.037477074415e-07, -9.999999999999e+05, 1.000000000004e-02, 9.017910041892e-15, 3.761642080407e-15, 9.999999999988e-03, 1.244972489298e-14, -5.000000000000e-02
103, 0.000000000000e+00, 6.289672619035e-02, -9.189949156746e-02, 8.787114725069e-07, 2.983871616012e-08, 4.275440839198e-08, -1.529050577018e-07, -2.713423407431e-08, -9.999999999997e+05, 1.000000000004e-02, 3.580645939215e-15, 5.130529007037e-15, 9.999999999981e-03, -3.256108088917e-15, -4.999999999999e-02
104, 0.000000000000e+00, 4.038027343743e-02, -1.389059632316e-01, 2.310448002795e-07, 1.041747626305e-08, -6.444919347432e-08, -1.810710980660e-07, -7.660089126790e-09, -9.999999999996e+05, 1.000000000001e-02, 1.250097151567e-15, -7.733903216918e-15, 9.999999999984e-03, -9.192106952148e-16, -4.999999999998e-02
105, 0.000000000000e+00, 2.774223129028e-02, -2.939356505377e-01, -4.145189277118e-07, 2.158450766693e-08, -7.008596917385e-08, -1.853422006770e-07, -3.006664719885e-08, -1.000000000000e+06, 9.999999999981e-03, 2.590140920032e-15, -8.410316300862e-15, 9.999999999995e-03, -3.607997663862e-15, -4.999999999999e-02
106, 0.000000000000e+00, 5.878225993810e-02, -3.607684707641e-01, -1.959941493204e-07, -3.493187041190e-08, -4.985661990091e-09, -8.872489277751e-08, -1.336330144357e-08, -1.000000000000e+06, 9.999999999993e-03, -4.191824449428e-15, -5.982794388109e-16, 1.000000000000e-02, -1.603596173229e-15, -5.000000000001e-02
107, 0.000000000000e+00, 7.211412402551e-02, -2.018606714370e-01, 1.050275899709e-06, 7.360126851009e-08, 7.223158121927e-08, -7.850123951450e-08, 1.302414076397e-08, -9.999999999999e+05, 1.000000000005e-02, 8.832152221211e-15, 8.667789746312e-15, 9.999999999984e-03, 1.562896891677e-15, -5.000000000000e-02
108, 0.000000000000e+00, 1.675203435016e-02, -8.988446645580e-02, -3.405297413850e-08, 2.015480871882e-09, -3.030928873267e-08, -3.561077532000e-07, 3.005378305403e-08, -9.999999999995e+05, 9.999999999997e-03, 2.418577046258e-16, -3.637114647920e-15, 9.999999999977e-03, 3.606453966483e-15, -4.999999999997e-02
109, 0.000000000000e+00, 8.200217004305e-02, -8.375203260091e-02, 1.678926846347e-06, 3.712644155930e-08, 2.412250216914e-08, -2.536510762114e-07, 5.030818547241e-08, -9.999999999999e+05, 1.000000000009e-02, 4.455172987116e-15, 2.894700260297e-15, 9.999999999970e-03, 6.036982256689e-15, -5.000000000001e-02
110, 0.000000000000e+00, 1.796910101998e-02, -4.154072317939e-01, -1.162616006861e-06, 2.702320868412e-09, -1.933829265089e-09, -2.125196977321e-08, -5.179310438723e-08, -1.000000000000e+06, 9.999999999943e-03, 3.242785042095e-16, -2.320595118107e-16, 1.000000000001e-02, -6.215172526468e-15, -4.999999999999e-02
111, 0.000000000000e+00, 8.308047232498e-02, -4.100504203434e-01, 3.438846871370e-07, -7.027628733226e-08, 8.881477553963e-09, 6.694762939305e-09, 6.840111039303e-08, -1.000000000000e+06, 1.000000000002e-02, -8.433154479871e-15, 1.065777306476e-15, 9.999999999998e-03, 8.208133247164e-15, -5.000000000001e-02
112, 5.000000000043e-02, 9.999999999971e-02, -2.499999999999e-01, 1.488640918978e-06, 1.766166844815e-07, 2.077533144553e-07, -3.270664213536e-08, 4.162128849821e-08, -9.999999999991e+05, 1.000000000007e-02, 2.119400213778e-14, 2.493039773464e-14, 9.999999999975e-03, 4.994554619785e-15, -4.999999999997e-02
113, 7.083333333407e-02, 9.999999999940e-02, -1.458333333332e-01, 1.946316721539e-06, 2.278535192314e-07, -1.218086684758e-07, -1.475379879897e-07, 1.966799812086e-07, -9.999999999984e+05, 1.000000000008e-02, 2.734242230777e-14, -1.461704021710e-14, 9.999999999958e-03, 2.360159774504e-14, -4.999999999994e-02
114, 2.916666666686e-02, 9.999999999988e-02, -3.541666666667e-01, 1.077599812388e-06, 1.666179956489e-08, 1.927906791166e-07, -9.901746774891e-08, 6.726992612640e-08, -9.999999999999e+05, 1.000000000005e-02, 1.999415947787e-15, 2.313488149399e-14, 9.999999999983e-03, 8.072391135168e-15, -5.000000000000e-02
115, 2.916666666697e-02, 9.999999999975e-02, -1.458333333334e-01, 1.962182328238e-06, 9.961808749211e-08, 1.192962278510e-08, -1.119873819074e-07, 2.145988895294e-09, -9.999999999997e+05, 1.000000000010e-02, 1.195417049905e-14, 1.431554734212e-15, 9.999999999972e-03, 2.575186674353e-16, -5.000000000000e-02
116, 7.083333333380e-02, 9.999999999947e-02, -3.541666666662e-01, 1.147665089876e-06, 1.434003941184e-07, 3.569342127676e-07, -3.358016126893e-07, 3.306282556122e-07, -9.999999999988e+05, 1.000000000005e-02, 1.720804729420e-14, 4.283210553211e-14, 9.999999999960e-03, 3.967539067346e-14, -4.999999999995e-02
117, 7.797619047684e-02, 9.999999999938e-02, -2.499999999997e-01, 1.327361840393e-06, 1.256507998857e-07, 9.400544819809e-08, -4.993893930482e-08, 7.546288054315e-08, -9.999999999981e+05, 1.000000000005e-02, 1.507809598628e-14, 1.128065378377e-14, 9.999999999965e-03, 9.055545665178e-15, -4.999999999992e-02
118, 5.000000000055e-02, 9.999999999960e-02, -1.101190476190e-01, 2.004816552572e-06, 2.091034473273e-07, -9.174426475416e-08, -1.310852692566e-07, 1.013510409859e-07, -9.999999999992e+05, 1.000000000009e-02, 2.509241367928e-14, -1.100931177050e-14, 9.999999999965e-03, 1.216212491831e-14, -4.999999999998e-02
119, 2.202380952400e-02, 9.999999999985e-02, -2.500000000001e-01, 1.585981711590e-06, 5.575813970047e-08, 1.246973438252e-07, -7.102223915151e-08, -5.732518208837e-09, -9.999999999998e+05, 1.000000000008e-02, 6.690976764056e-15, 1.496368125903e-14, 9.999999999978e-03, -6.879021850604e-16, -5.000000000000e-02
120, 5.000000000028e-02, 9.999999999976e-02, -3.898809523808e-01, 8.563438314013e-07, 7.974570499992e-08, 2.738156602176e-07, -5.522451829165e-08, 1.572061025595e-07, -9.999999999997e+05, 1.000000000004e-02, 9.569484599991e-15, 3.285787922611e-14, 9.999999999985e-03, 1.886473230714e-14, -4.999999999999e-02
121, 8.385416666759e-02, 9.999999999908e-02, -8.072916666654e-02, 1.380569301546e-06, 2.778936658334e-07, -1.180216707543e-07, -4.987348802388e-07, 2.537982362852e-07, -9.999999999985e+05, 1.000000000006e-02, 3.334723990001e-14, -1.416260049051e-14, 9.999999999946e-03, 3.045578835422e-14, -4.999999999993e-02
122, 1.354166666673e-02, 1.000000000000e-01, -4.322916666668e-01, 7.482420187443e-07, -4.748022480584e-08, 3.384626201993e-08, 1.424147437016e-09, 7.647142949738e-08, -1.000000000000e+06, 1.000000000004e-02, -5.697626976701e-15, 4.061551442391e-15, 9.999999999993e-03, 9.176571539686e-15, -5.000000000001e-02
123, 1.546794738321e-02, 9.999999999976e-02, -7.733973691521e-02, 2.172978323263e-06, 5.457840607892e-08, -2.625877428306e-09, -5.441737206032e-08, -1.413269578526e-08, -9.999999999999e+05, 1.000000000011e-02, 6.549408729471e-15, -3.151052913967e-16, 9.999999999974e-03, -1.695923494231e-15, -5.000000000002e-02
124, 8.385416666706e-02, 9.999999999922e-02, -4.192708333326e-01, 5.889847266695e-07, 6.887595078894e-08, 1.535157996095e-07, -5.793651022638e-07, 3.496218714487e-07, -9.999999999992e+05, 1.000000000003e-02, 8.265114094673e-15, 1.842189595314e-14, 9.999999999957e-03, 4.195462457384e-14, -4.999999999996e-02
125, 5.164722584988e-02, 5.006580214098e-02, -2.529815737478e-01, 1.672798624405e-08, -4.129902142017e-08, 1.419855411722e-07, -4.980560893623e-07, -1.936639913903e-08, -9.999999999996e+05, 1.000000000000e-02, -4.955882570420e-15, 1.703826494067e-14, 9.999999999971e-03, -2.323967896684e-15, -4.999999999997e-02
126, 7.099771419842e-02, 3.340158479183e-02, -3.528147699603e-01, -2.975633371592e-07, -1.670938973009e-07, 1.113407366561e-07, -1.207215338206e-06, -1.343284184879e-07, -9.999999999996e+05, 9.999999999994e-03, -2.005126767611e-14, 1.336088839874e-14, 9.999999999939e-03, -1.611941021854e-14, -4.999999999997e-02
127, 7.025696164604e-02, 6.499517679299e-02, -1.494818643230e-01, 2.985752727245e-07, -5.245324218329e-08, 1.167264392415e-07, -6.976345228770e-07, 2.067414031836e-07, -9.999999999989e+05, 1.000000000001e-02, -6.294389061995e-15, 1.400717270898e-14, 9.999999999951e-03, 2.480896838204e-14, -4.999999999994e-02
128, 3.360242857615e-02, 3.164713577368e-02, -1.490698264424e-01, -1.894538096773e-08, 6.326967186084e-09, 1.049141935316e-07, -3.814360146256e-07, -4.574122475463e-08, -9.999999999994e+05, 9.999999999997e-03, 7.592360623300e-16, 1.258970322380e-14, 9.999999999975e-03, -5.488946970555e-15, -4.999999999997e-02
129, 6.915921461396e-02, 6.673569484478e-02, -3.546712606272e-01, 3.501433335866e-08, -1.393947941337e-07, 1.183327029256e-07, -6.830232450739e-07, -1.033498989407e-07, -9.999999999996e+05, 1.000000000000e-02, -1.672737529605e-14, 1.419992435108e-14, 9.999999999961e-03, -1.240198787288e-14, -4.999999999997e-02
130, 7.025127680734e-02, 3.257317617947e-02, -1.530330956678e-01, -3.385694550448e-08, -1.095113066410e-07, 1.567481803671e-07, -1.206420660182e-06, 4.905922895225e-08, -9.999999999989e+05, 1.000000000000e-02, -1.314135679692e-14, 1.880978164405e-14, 9.999999999929e-03, 5.887107474270e-15, -4.999999999993e-02
131, 3.393940575027e-02, 6.786413276004e-02, -1.498096329819e-01, 8.786705115603e-07, 1.486836042232e-07, 7.917762823663e-08, -2.309146414821e-07, 4.682632373632e-08, -9.999999999996e+05, 1.000000000004e-02, 1.784203250678e-14, 9.501315388396e-15, 9.999999999975e-03, 5.619158848358e-15, -4.999999999999e-02
132, 3.041256017449e-02, 3.377522176701e-02, -3.482456585140e-01, -6.121151861461e-07, -2.947052834611e-08, 5.741584377085e-08, -2.821000046371e-07, -1.080602514979e-07, -1.000000000000e+06, 9.999999999972e-03, -3.536463401533e-15, 6.889901252502e-15, 9.999999999992e-03, -1.296723017974e-14, -4.999999999999e-02
133, 3.132429266729e-02, 6.747382102270e-02, -3.463851366689e-01, 1.953982670481e-07, -2.766702358035e-08, 1.087257425862e-07, -1.882161835537e-07, -3.034990134346e-08, -9.999999999999e+05, 1.000000000001e-02, -3.320042829642e-15, 1.304708911035e-14, 9.999999999988e-03, -3.641988161215e-15, -5.000000000000e-02
