"TIME", "PRESSURE1", "DISPLACEMENT_X1", "DISPLACEMENT_Y1", "STRESS_XX", "STRESS_YY", "STRESS_ZZ", "STRESS_XY", "STRAIN_XX", "STRAIN_YY", "STRAIN_XY"
0.000000000000e+00, 1.000000000000e+03, 0.000000000000e+00, 0.000000000000e+00, 0.000000000000e+00, 0.000000000000e+00, 0.000000000000e+00, 0.000000000000e+00, 0.000000000000e+00, 0.000000000000e+00, 0.000000000000e+00
2.000000000000e-03, 9.999863840276e+02, -5.952413236195e-13, 0.000000000000e+00, -1.361597238375e-02, -3.403993094275e-03, -3.403993095604e-03, 1.012737580243e-14, -1.225437514577e-11, 1.595649090227e-21, 2.430570192583e-23
4.000000000000e-03, 9.998999621013e+02, -4.677061397089e-12, 0.000000000000e+00, -1.000378987012e-01, -2.500947467394e-02, -2.500947467503e-02, 2.043217506145e-13, -9.003410883142e-11, 1.311218067743e-21, 4.903722014747e-22
6.000000000000e-03, 9.996145574718e+02, -1.927094810647e-11, 0.000000000000e+00, -3.854425281690e-01, -9.636063204122e-02, -9.636063204205e-02, 1.863177598715e-13, -3.468982753524e-10, 9.922770702160e-22, 4.471626236916e-22
8.000000000000e-03, 9.989533071363e+02, -5.588989037191e-11, 0.000000000000e+00, -1.046692863695e+00, -2.616732159231e-01, -2.616732159236e-01, 1.762904812488e-13, -9.420235773257e-10, 6.592219408211e-22, 4.230971549971e-22
1.000000000000e-02, 9.977320632146e+02, -1.291493586154e-10, 0.000000000000e+00, -2.267936785432e+00, -5.669841963594e-01, -5.669841963583e-01, 4.210945094098e-13, -2.041143106889e-09, -1.353615241186e-21, 1.010626822584e-21
1.200000000000e-02, 9.958002601487e+02, -2.547676388917e-10, 0.000000000000e+00, -4.199739851281e+00, -1.049934962820e+00, -1.049934962820e+00, 1.943627658115e-13, -3.779765866153e-09, 1.714266512430e-22, 4.664706379477e-22
1.400000000000e-02, 9.930684335046e+02, -4.471715261026e-10, 0.000000000000e+00, -6.931566495365e+00, -1.732891623841e+00, -1.732891623841e+00, 1.446789505819e-13, -6.238409845829e-09, 2.961279565304e-22, 3.472294813967e-22
1.600000000000e-02, 9.895107321911e+02, -7.181311913076e-10, 0.000000000000e+00, -1.048926780889e+01, -2.622316952222e+00, -2.622316952222e+00, 1.336985147900e-13, -9.440341027999e-09, 3.126753522002e-22, 3.208764354961e-22
1.800000000000e-02, 9.851552261398e+02, -1.075958606121e-09, 0.000000000000e+00, -1.484477386015e+01, -3.711193465040e+00, -3.711193465039e+00, 3.397707525893e-13, -1.336029647414e-08, -2.233115309146e-21, 8.154498062142e-22
2.000000000000e-02, 9.800645244065e+02, -1.526093043646e-09, 0.000000000000e+00, -1.993547559350e+01, -4.983868898376e+00, -4.983868898374e+00, 3.450463678983e-13, -1.794192803415e-08, -2.081399211444e-21, 8.281112829560e-22
2.200000000000e-02, 9.743239473780e+02, -2.070905472564e-09, 0.000000000000e+00, -2.567605262197e+01, -6.419013155495e+00, -6.419013155494e+00, 3.427378761971e-13, -2.310844735978e-08, -1.624497688378e-21, 8.225709028729e-22
2.400000000000e-02, 9.680277393136e+02, -2.710423360685e-09, 0.000000000000e+00, -3.197226068643e+01, -7.993065171610e+00, -7.993065171609e+00, 4.790136164486e-13, -2.877503461779e-08, -1.333326867700e-21, 1.149632679477e-21
2.600000000000e-02, 9.612703991898e+02, -3.442886640501e-09, 0.000000000000e+00, -3.872960081020e+01, -9.682400202550e+00, -9.682400202549e+00, 3.977624505794e-13, -3.485664072918e-08, -1.282742109068e-21, 9.546298813905e-22
2.800000000000e-02, 9.541418538117e+02, -4.264947141158e-09, 0.000000000000e+00, -4.585814618830e+01, -1.146453654708e+01, -1.146453654707e+01, 2.786481778052e-13, -4.127233156947e-08, -1.235039776030e-21, 6.687556267324e-22
3.000000000000e-02, 9.467223869800e+02, -5.173025835553e-09, 0.000000000000e+00, -5.327761301998e+01, -1.331940325500e+01, -1.331940325500e+01, 3.247112757495e-13, -4.794985171798e-08, -1.333212715524e-21, 7.793070617989e-22
3.200000000000e-02, 9.390840254297e+02, -6.162666568970e-09, 0.000000000000e+00, -6.091597457029e+01, -1.522899364257e+01, -1.522899364257e+01, 3.181025392405e-13, -5.482437711326e-08, -1.545160904666e-21, 7.634460941773e-22
3.400000000000e-02, 9.312892650043e+02, -7.229119706405e-09, 0.000000000000e+00, -6.871073499568e+01, -1.717768374892e+01, -1.717768374892e+01, 3.446301296472e-13, -6.183966149611e-08, -1.336220198458e-21, 8.271123111532e-22
3.600000000000e-02, 9.233915114214e+02, -8.367529207949e-09, 0.000000000000e+00, -7.660848857861e+01, -1.915212214465e+01, -1.915212214465e+01, 3.625892105383e-13, -6.894763972075e-08, -1.213449614393e-21, 8.702141052919e-22
3.800000000000e-02, 9.154358517546e+02, -9.573064419329e-09, 0.000000000000e+00, -8.456414824542e+01, -2.114103706136e+01, -2.114103706135e+01, 2.935426066293e-13, -7.610773342088e-08, -1.204511607864e-21, 7.045022559104e-22
4.000000000000e-02, 9.074599622013e+02, -1.084101085172e-08, 0.000000000000e+00, -9.254003779867e+01, -2.313500944967e+01, -2.313500944967e+01, 2.755638436687e-13, -8.328603401880e-08, -1.298373074881e-21, 6.613532248048e-22
4.200000000000e-02, 8.994944883444e+02, -1.216645845225e-08, 0.000000000000e+00, -1.005055116556e+02, -2.512637791391e+01, -2.512637791391e+01, 2.988560857273e-13, -9.045496049008e-08, -1.255114545039e-21, 7.172546057456e-22
4.400000000000e-02, 8.915653389226e+02, -1.354550710488e-08, 0.000000000000e+00, -1.084346610774e+02, -2.710866526936e+01, -2.710866526936e+01, 4.215837281765e-13, -9.759119496970e-08, -1.379366641999e-21, 1.011800947624e-21
4.600000000000e-02, 8.836934088223e+02, -1.497406479982e-08, 0.000000000000e+00, -1.163065911777e+02, -2.907664779442e+01, -2.907664779442e+01, 3.118150722796e-13, -1.046759320599e-07, -1.317538372471e-21, 7.483561734711e-22
4.800000000000e-02, 8.758955039219e+02, -1.644827630358e-08, 0.000000000000e+00, -1.241044960781e+02, -3.102612401952e+01, -3.102612401952e+01, 3.901197383047e-13, -1.116940464703e-07, -1.266320564996e-21, 9.362873719313e-22
5.000000000000e-02, 8.681849830332e+02, -1.796452922346e-08, 0.000000000000e+00, -1.318150169668e+02, -3.295375424169e+01, -3.295375424169e+01, 4.310701800466e-13, -1.186335152701e-07, -1.176121878569e-21, 1.034568432112e-21
5.200000000000e-02, 8.605723054364e+02, -1.951944892640e-08, 0.000000000000e+00, -1.394276945636e+02, -3.485692364089e+01, -3.485692364089e+01, 3.053666174094e-13, -1.254849251072e-07, -1.073835173799e-21, 7.328798817825e-22
5.400000000000e-02, 8.530654996693e+02, -2.110988969184e-08, 0.000000000000e+00, -1.469345003307e+02, -3.673362508266e+01, -3.673362508266e+01, 3.501754700465e-13, -1.322410502976e-07, -1.384227799562e-21, 8.404211281117e-22
5.600000000000e-02, 8.456705626370e+02, -2.273292358534e-08, 0.000000000000e+00, -1.543294373630e+02, -3.858235934076e+01, -3.858235934076e+01, 4.109993702434e-13, -1.388964936267e-07, -1.425024854766e-21, 9.863984885843e-22
5.800000000000e-02, 8.383917979990e+02, -2.438582806637e-08, 0.000000000000e+00, -1.616082020010e+02, -4.040205050026e+01, -4.040205050026e+01, 3.363126926555e-13, -1.454473818009e-07, -1.373953105302e-21, 8.071504623733e-22
6.000000000000e-02, 8.312301641268e+02, -2.606571425105e-08, 0.000000000000e+00, -1.687698358732e+02, -4.219245896830e+01, -4.219245896829e+01, 3.066831749519e-13, -1.518928522859e-07, -1.391303431840e-21, 7.360396198844e-22
6.200000000000e-02, 8.241892741047e+02, -2.777064458336e-08, 0.000000000000e+00, -1.758107258953e+02, -4.395268147384e+01, -4.395268147384e+01, 3.719640123361e-13, -1.582296533058e-07, -1.413261407549e-21, 8.927136296066e-22
6.400000000000e-02, 8.172699860384e+02, -2.949843961353e-08, 0.000000000000e+00, -1.827300139616e+02, -4.568250349040e+01, -4.568250349040e+01, 4.472450383980e-13, -1.644570125654e-07, -1.429760518578e-21, 1.073388092155e-21
6.600000000000e-02, 8.104723024260e+02, -3.124706397612e-08, 0.000000000000e+00, -1.895276975740e+02, -4.738192439350e+01, -4.738192439350e+01, 2.901395627008e-13, -1.705749278166e-07, -1.314812475748e-21, 6.963349504819e-22
6.800000000000e-02, 8.037955711097e+02, -3.301462556232e-08, 0.000000000000e+00, -1.962044288903e+02, -4.905110722259e+01, -4.905110722259e+01, 2.930061571491e-13, -1.765839860013e-07, -1.313146009087e-21, 7.032147771578e-22
7.000000000000e-02, 7.972386096158e+02, -3.479936485994e-08, 0.000000000000e+00, -2.027613903842e+02, -5.069034759604e+01, -5.069034759604e+01, 3.973658943978e-13, -1.824852513458e-07, -1.307417263921e-21, 9.536781465547e-22
7.200000000000e-02, 7.907998083024e+02, -3.659964474639e-08, 0.000000000000e+00, -2.092001916976e+02, -5.230004792439e+01, -5.230004792439e+01, 3.313304269008e-13, -1.882801725278e-07, -1.487680220325e-21, 7.951930245619e-22
7.400000000000e-02, 7.844772170141e+02, -3.841394101636e-08, 0.000000000000e+00, -2.155227829859e+02, -5.388069574648e+01, -5.388069574648e+01, 4.344435682076e-13, -1.939705046873e-07, -1.592745882336e-21, 1.042664563698e-21
7.600000000000e-02, 7.782686178810e+02, -4.024083363515e-08, 0.000000000000e+00, -2.217313821190e+02, -5.543284552974e+01, -5.543284552974e+01, 4.642630233175e-13, -1.995582439071e-07, -1.234007677286e-21, 1.114231255962e-21
7.800000000000e-02, 7.721715864356e+02, -4.207899868837e-08, 0.000000000000e+00, -2.278284135644e+02, -5.695710339111e+01, -5.695710339110e+01, 4.611041088181e-13, -2.050455722080e-07, -1.294030579995e-21, 1.106649861163e-21
8.000000000000e-02, 7.661835428688e+02, -4.392720099028e-08, 0.000000000000e+00, -2.338164571312e+02, -5.845411428279e+01, -5.845411428279e+01, 3.393215047350e-13, -2.104348114180e-07, -1.318927245715e-21, 8.143716113639e-22
8.200000000000e-02, 7.603017949596e+02, -4.578428730862e-08, 0.000000000000e+00, -2.396982050404e+02, -5.992455126011e+01, -5.992455126011e+01, 3.852574483555e-13, -2.157283845364e-07, -1.124464458718e-21, 9.246178760532e-22
8.400000000000e-02, 7.545235739620e+02, -4.764918016187e-08, 0.000000000000e+00, -2.454764260380e+02, -6.136910650951e+01, -6.136910650951e+01, 4.354205567709e-13, -2.209287834342e-07, -1.242654732296e-21, 1.045009336250e-21
8.600000000000e-02, 7.488429606053e+02, -4.952070089602e-08, 0.000000000000e+00, -2.511570393947e+02, -6.278925984868e+01, -6.278925984868e+01, 4.262917378877e-13, -2.260413354552e-07, -1.238115440554e-21, 1.023100170930e-21
8.800000000000e-02, 7.432602166742e+02, -5.139812402003e-08, 0.000000000000e+00, -2.567397833258e+02, -6.418494583145e+01, -6.418494583145e+01, 2.894465385527e-13, -2.310658049932e-07, -1.181524818221e-21, 6.946716925266e-22
9.000000000000e-02, 7.377726897743e+02, -5.328057368266e-08, 0.000000000000e+00, -2.622273102257e+02, -6.555682755642e+01, -6.555682755642e+01, 3.242037757662e-13, -2.360045792031e-07, -1.292402984299e-21, 7.780890618389e-22
9.200000000000e-02, 7.323775647896e+02, -5.516721895009e-08, 0.000000000000e+00, -2.676224352104e+02, -6.690560880261e+01, -6.690560880261e+01, 4.424086972453e-13, -2.408601916894e-07, -1.129374335347e-21, 1.061780873389e-21
9.400000000000e-02, 7.270720443692e+02, -5.705728057556e-08, 0.000000000000e+00, -2.729279556307e+02, -6.823198890769e+01, -6.823198890769e+01, 3.830616362296e-13, -2.456351600677e-07, -1.177546661384e-21, 9.193479269512e-22
9.600000000000e-02, 7.218533706490e+02, -5.895002789120e-08, 0.000000000000e+00, -2.781466293510e+02, -6.953665733775e+01, -6.953665733775e+01, 3.942588774914e-13, -2.503319664159e-07, -1.026816764060e-21, 9.462213059792e-22
9.800000000000e-02, 7.167188352207e+02, -6.084477546348e-08, 0.000000000000e+00, -2.832811647793e+02, -7.082029119482e+01, -7.082029119482e+01, 3.082619259310e-13, -2.549530483013e-07, -1.050426081557e-21, 7.398286222345e-22
1.000000000000e-01, 7.116657866017e+02, -6.274088000100e-08, 0.000000000000e+00, -2.883342133983e+02, -7.208355334958e+01, -7.208355334957e+01, 4.583394261677e-13, -2.595007920585e-07, -1.286239316762e-21, 1.100014622802e-21
