"TIME", "TEMPERATURE1", "DISPLACEMENT_X1", "DISPLACEMENT_Y1", "DISPLACEMENT_Z1", "STRESS_XX", "STRESS_YY", "STRESS_ZZ", "STRESS_XZ", "STRESS_YZ", "STRAIN_XX", "STRAIN_XY", "STRAIN_YY", "STRAIN_ZZ", "STRAIN_XZ", "STRAIN_YZ", "STRAIN_PLS"
0.000000000000e+00, 2.981500000000e+02, 0.000000000000e+00, 0.000000000000e+00, 0.000000000000e+00, 0.000000000000e+00, 0.000000000000e+00, 0.000000000000e+00, 0.000000000000e+00, 0.000000000000e+00, 0.000000000000e+00, 0.000000000000e+00, 0.000000000000e+00, 0.000000000000e+00, 0.000000000000e+00, 0.000000000000e+00, 0.000000000000e+00
1.000000000000e-01, 2.981499930214e+02, 1.244891380101e-10, -4.570367802064e-09, -2.324653586183e-08, -9.448945224745e+04, -2.561061161171e+05, -9.385593703284e+04, 1.470863334644e+00, -1.452267859334e+01, 1.004006501188e-10, 3.167574180314e-11, -8.210026123929e-06, 3.228297355233e-08, 1.494397147999e-10, -1.475504145083e-09, 0.000000000000e+00
2.000000000000e-01, 2.981500460543e+02, 1.150933919393e-10, -1.533438187703e-08, -1.275071664915e-08, -1.270274006500e+05, -3.440405896135e+05, -1.264638209491e+05, -8.355686651732e-01, 2.165516972243e-01, 9.493314421072e-11, -2.308861333598e-11, -1.102417506620e-05, 2.872478194923e-08, -8.489377638160e-11, 2.200165243799e-11, 0.000000000000e+00
3.000000000000e-01, 2.981498598797e+02, 3.715521166644e-11, -1.817823252307e-08, -1.022060469863e-08, -1.524038107191e+05, -4.124542357258e+05, -1.520425951217e+05, -2.747691367177e+00, -2.139715270902e+01, -1.878344984202e-11, -3.958896845237e-10, -1.321058037379e-05, 1.833096889821e-08, -2.791654429052e-10, -2.173950715236e-09, 0.000000000000e+00
4.000000000000e-01, 2.981499563450e+02, 5.894045226317e-11, -1.733731909896e-08, -7.606268133658e-09, -1.741910655521e+05, -4.710771577800e+05, -1.740078114858e+05, -1.192778960728e+00, -4.073547566731e+01, 4.713229419475e-12, -4.649200983707e-10, -1.508180877194e-05, 9.314019800705e-09, -1.211863424100e-10, -4.138724327798e-09, 0.000000000000e+00
5.000000000000e-01, 2.981502850537e+02, 1.886428077225e-10, -1.513996860617e-08, -4.908768993189e-09, -1.935767406567e+05, -5.233057126245e+05, -1.935250364856e+05, 2.451666545471e+00, -5.322163469335e+01, 1.271534294903e-10, -5.433815468330e-11, -1.675010462253e-05, 2.753725319949e-09, 2.490893210198e-10, -5.407318084845e-09, 0.000000000000e+00
