"TIME", "TEMPERATURE1", "DISPLACEMENT_X1", "DISPLACEMENT_Y1", "DISPLACEMENT_Z1", "STRESS_XX", "STRESS_XY", "STRESS_YY", "STRESS_ZZ", "STRESS_XZ", "STRESS_YZ", "STRAIN_XX", "STRAIN_XY", "STRAIN_YY", "STRAIN_ZZ", "STRAIN_XZ", "STRAIN_YZ", "STRAIN_PLS"
0.000000000000e+00, 2.981500000000e+02, 0.000000000000e+00, 0.000000000000e+00, 0.000000000000e+00, 0.000000000000e+00, 0.000000000000e+00, 0.000000000000e+00, 0.000000000000e+00, 0.000000000000e+00, 0.000000000000e+00, 0.000000000000e+00, 0.000000000000e+00, 0.000000000000e+00, 0.000000000000e+00, 0.000000000000e+00, 0.000000000000e+00, 0.000000000000e+00
2.000000000000e-01, 2.981500460543e+02, 1.150933919393e-10, -1.533438187703e-08, -1.275071664915e-08, -1.270274006500e+05, -2.272501312596e-01, -3.440405896135e+05, -1.264638209491e+05, -8.355686651732e-01, 2.165516972243e-01, 9.493314421072e-11, -2.308861333598e-11, -1.102417506620e-05, 2.872478194923e-08, -8.489377638160e-11, 2.200165243799e-11, 0.000000000000e+00
4.000000000000e-01, 2.981499563450e+02, 5.894045226317e-11, -1.733731909896e-08, -7.606268133658e-09, -1.741910655521e+05, -4.575985220184e+00, -4.710771577800e+05, -1.740078114858e+05, -1.192778960728e+00, -4.073547566731e+01, 4.713229419475e-12, -4.649200983707e-10, -1.508180877194e-05, 9.314019800705e-09, -1.211863424100e-10, -4.138724327798e-09, 0.000000000000e+00
6.000000000000e-01, 2.981502928807e+02, 2.951466779363e-10, -1.282364840390e-08, -2.514373215249e-09, -2.111321310309e+05, 5.895166197989e+00, -5.708821348316e+05, -2.111653862418e+05, 5.679728403433e+00, -5.789429553371e+01, 1.603517020786e-10, 5.989488857156e-10, -1.827513984137e-05, -1.529013011078e-09, 5.770604057888e-10, -5.882060426225e-09, 0.000000000000e+00
8.000000000000e-01, 2.981486874835e+02, -2.703550270076e-11, -9.909778998323e-09, 8.158023123917e-10, -2.423187481224e+05, 1.740148970524e+01, -6.559508422982e+05, -2.424228318417e+05, 6.185323664942e+00, -4.831072475933e+01, -3.678244450579e-10, 1.767991354052e-09, -2.101287820857e-05, -5.655277381183e-09, 6.284288843581e-10, -4.908369635548e-09, 0.000000000000e+00
1.000000000000e+00, 2.981484883442e+02, -1.271229949455e-09, -9.873756226427e-09, 2.344278548436e-09, -2.706185088616e+05, 2.260368630086e+01, -7.313050422036e+05, -2.707391517937e+05, -4.190983952665e-01, -2.531516091456e+01, -1.507814304534e-09, 2.296534528167e-09, -2.340438370808e-05, -7.636475255614e-09, -4.258039695907e-11, -2.572020348919e-09, 0.000000000000e+00
