NodeID, DISPLACEMENT_X1, DISPLACEMENT_Y1, TEMPERATURE1, STRESS_XX, STRESS_XY, STRESS_YY, STRESS_ZZ, STRAIN_XX, STRAIN_XY, STRAIN_YY, STRAIN_ZZ
0, 0.000000000000e+00, 0.000000000000e+00, 2.500000000000e+01, -1.249021212020e-02, 2.660551873834e-06, -4.051573529337e-03, -4.137053338394e-03, -4.177205859682e-12, 2.660551873834e-15, 4.211343575160e-14, -6.264687768013e-16
1, 0.000000000000e+00, 0.000000000000e+00, 2.500000000000e+01, -1.240552152148e-02, -3.540790822357e-06, -4.135762076725e-03, -4.138242832188e-03, -4.134780208469e-12, -3.540790822357e-15, 9.951390700567e-17, -1.140863824444e-15
2, 2.315943001614e-10, 0.000000000000e+00, 2.500001495105e+01, -7.709497992515e-02, -1.287943670590e-01, -1.496916620769e+00, -2.087649704842e+00, 8.432488164555e-10, -1.287943670590e-10, 1.333379960337e-10, -1.620285460031e-10
3, 4.228563162737e-10, 0.000000000000e+00, 2.500001482968e+01, -8.322477940400e-02, 3.326120309251e-01, -1.884156966158e+00, -2.905612450300e+00, 1.063797339375e-09, 3.326120309251e-10, 1.633312459980e-10, -3.473964960730e-10
4, 9.142655253440e-10, 0.000000000000e+00, 2.499999929993e+01, -4.917729036598e-01, 7.455190416819e-02, 3.894605936941e-01, 3.252360507435e-01, -3.205423850350e-10, 7.455190416819e-11, 1.200743636420e-10, 8.796209216672e-11
5, 4.907217273234e-10, 0.000000000000e+00, 2.500000003133e+01, -7.534397601188e-02, 1.628610624224e-03, 7.474187246468e-02, -1.604423864543e-02, -3.272041539765e-11, 1.628610624224e-12, 4.232250884063e-11, -3.070546714430e-12
6, 3.714160192769e-10, 0.000000000000e+00, 2.499999992874e+01, -6.660504252152e-02, -2.237586709663e-03, 5.823530966130e-02, 2.255539268063e-03, -3.493910817823e-11, -2.237586709663e-12, 2.748106791318e-11, -5.088172834371e-13
7, 2.829451241797e-10, 0.000000000000e+00, 2.500000000485e+01, -4.522787334187e-02, -4.905164536076e-04, 2.782555468702e-02, -5.466442106291e-03, -2.002828021483e-11, -4.905164536076e-13, 1.649843379962e-11, -1.475645970394e-13
8, 2.213141448637e-10, 0.000000000000e+00, 2.499999999958e+01, -3.388525391588e-02, 1.718265921824e-05, 1.716431200489e-02, -3.897112305096e-03, -1.490233682366e-11, 1.718265921824e-14, 1.062244613672e-11, 9.173398173097e-14
9, 1.731212854036e-10, 0.000000000000e+00, 2.499999999996e+01, -2.656473726192e-02, -1.051992105805e-05, 1.003204049943e-02, -4.097095898222e-03, -1.122063087489e-11, -1.051992105805e-14, 7.077758005780e-12, 1.318980695418e-14
10, 1.340215592858e-10, 0.000000000000e+00, 2.500000000003e+01, -2.192265470994e-02, -6.404650473621e-06, 5.378265090206e-03, -4.126323327913e-03, -8.893397445694e-12, -6.404650473621e-15, 4.757062454381e-12, 4.768245321414e-15
11, 1.009415302858e-10, 0.000000000000e+00, 2.500000000000e+01, -1.856387365253e-02, -2.096634521912e-06, 2.028748461290e-03, -4.133068389847e-03, -7.215282486378e-12, -2.096634521912e-15, 3.081028570532e-12, 1.201449639470e-16
12, 7.205794862945e-11, 0.000000000000e+00, 2.500000000000e+01, -1.630225421275e-02, -3.427872052724e-06, -2.351849372981e-04, -4.137523667122e-03, -6.083673872892e-12, -3.427872052724e-15, 1.949860764837e-12, -1.308600075253e-15
13, 4.613423467795e-11, 0.000000000000e+00, 2.500000000000e+01, -1.455817264357e-02, -5.424018583060e-07, -1.981338028467e-03, -4.138114034015e-03, -5.211315113871e-12, -5.424018583060e-16, 1.077102193678e-12, -1.285809095426e-15
14, 2.230814201301e-11, 0.000000000000e+00, 2.500000000000e+01, -1.333876450526e-02, -1.922233245290e-06, -3.200422762550e-03, -4.136820218261e-03, -4.601869030455e-12, -1.922233245290e-15, 4.673018409019e-13, -8.968869536025e-16
15, 0.000000000000e+00, 4.918246266576e-15, 2.500000000000e+01, -1.242919861089e-02, 2.210603055871e-08, -4.116402069879e-03, -4.137263624298e-03, -4.146300067404e-12, 2.210603055871e-17, 1.009820309976e-14, -3.325741097755e-16
16, 0.000000000000e+00, 4.919620872950e-15, 2.500000000000e+01, -1.247482243851e-02, -5.588953893648e-07, -4.069634459123e-03, -4.136286326107e-03, -4.169324404356e-12, -5.588953893648e-16, 3.326958533827e-14, -5.634815368815e-17
17, 0.000000000000e+00, 6.035259705719e-15, 2.500000000000e+01, -1.243450739492e-02, 6.553715371309e-10, -4.113870510429e-03, -4.135714711408e-03, -4.148830778562e-12, 6.553715371309e-19, 1.148766368492e-14, 5.655631957428e-16
18, 0.000000000000e+00, 3.779800479425e-16, 2.500000000000e+01, -1.248598824998e-02, -3.421983610511e-07, -4.062787622455e-03, -4.134402979779e-03, -4.174658226326e-12, -3.421983610511e-16, 3.694208743658e-14, 1.134408774457e-15
19, 0.000000000000e+00, -3.560393008398e-15, 2.500000000000e+01, -1.243725602124e-02, -2.493874578524e-08, -4.115908610990e-03, -4.134233211167e-03, -4.149877093260e-12, -2.493874578524e-17, 1.079661186540e-14, 1.634311776769e-15
20, 0.000000000000e+00, -1.072914972142e-14, 2.500000000000e+01, -1.244978818456e-02, -1.860882026113e-07, -4.098396860942e-03, -4.134733118865e-03, -4.156587845607e-12, -1.860882026113e-16, 1.910781619995e-14, 9.396872388690e-16
21, 0.000000000000e+00, -1.351179115474e-14, 2.500000000000e+01, -1.243097518519e-02, 5.332077941378e-07, -4.119807505006e-03, -4.135014151707e-03, -4.146893542413e-12, 5.332077941378e-16, 8.690297676948e-15, 1.086974326105e-15
22, 0.000000000000e+00, -1.923791991888e-14, 2.500000000000e+01, -1.245572398091e-02, 4.434083914008e-08, -4.094024768173e-03, -4.135616965584e-03, -4.159312835277e-12, 4.434083914008e-17, 2.153677109202e-14, 7.406723867794e-16
23, 0.000000000000e+00, -1.856295707163e-14, 2.500000000000e+01, -1.244313126417e-02, -8.837262111059e-07, -4.101809233566e-03, -4.137077140784e-03, -4.153346497241e-12, -8.837262111059e-16, 1.731451806296e-14, -3.194355462406e-16
24, 0.000000000000e+00, -1.623274557305e-14, 2.500000000000e+01, -1.247841350129e-02, 2.775390773457e-07, -4.066169407924e-03, -4.137855991740e-03, -4.170942571592e-12, 2.775390773457e-16, 3.517947508883e-14, -6.638168193103e-16
25, 0.000000000000e+00, -1.233426129902e-14, 2.500000000000e+01, -1.247604764200e-02, -3.595105638043e-08, -4.066777328644e-03, -4.138786686939e-03, -4.169850042516e-12, -3.595105638043e-17, 3.478511416191e-14, -1.219564985535e-15
26, 0.000000000000e+00, -5.300886736911e-15, 2.500000000000e+01, -1.243329964881e-02, -1.205220062304e-07, -4.110777948494e-03, -4.139467832873e-03, -4.148276484570e-12, -1.205220062304e-16, 1.298436558654e-14, -1.360576603213e-15
27, 0.000000000000e+00, 9.343931521326e-17, 2.500000000000e+01, -1.248075494368e-02, -2.806190091207e-07, -4.061365721453e-03, -4.138315745826e-03, -4.172314582141e-12, -2.806190091207e-16, 3.738002897185e-14, -1.094983214479e-15
28, 0.000000000000e+00, 5.723593214406e-15, 2.500000000000e+01, -1.243420631403e-02, -5.446277360540e-08, -4.111983383578e-03, -4.137582236690e-03, -4.148706487018e-12, -5.446277360540e-17, 1.240497820944e-14, -3.944483465541e-16
29, 0.000000000000e+00, 4.603382294516e-15, 2.500000000000e+01, -1.248998515190e-02, -2.528180266947e-07, -4.054751469390e-03, -4.135790323821e-03, -4.176918742792e-12, -2.528180266947e-16, 4.069809846222e-14, 1.786712467803e-16
30, 0.000000000000e+00, 7.594764154286e-15, 2.500000000000e+01, -1.242620061480e-02, 1.215836856885e-07, -4.122466350750e-03, -4.134681479362e-03, -4.144748862856e-12, 1.215836856885e-16, 7.118269171460e-15, 1.010704865481e-15
31, 0.000000000000e+00, 4.186257350440e-16, 2.500000000000e+01, -1.247736278117e-02, -3.755169436120e-07, -4.069633834890e-03, -4.135155488188e-03, -4.170449260955e-12, -3.755169436120e-16, 3.341521218676e-14, 6.543855378343e-16
32, 0.000000000000e+00, 3.976610263068e-16, 2.500000000000e+01, -1.242967456354e-02, 2.686894742839e-07, -4.117867073711e-03, -4.135892630464e-03, -4.146476044651e-12, 2.686894742839e-16, 9.427700261571e-15, 4.149218848074e-16
33, 0.000000000000e+00, -2.275563131128e-15, 2.500000000000e+01, -1.247300452405e-02, -1.574039036807e-07, -4.072450979030e-03, -4.136135939767e-03, -4.168321983240e-12, -1.574039036807e-16, 3.195478927160e-14, 1.123089030825e-16
34, 2.231201632808e-11, 0.000000000000e+00, 2.500000000000e+01, -1.348151693606e-02, 3.538366640345e-07, -3.058799086810e-03, -4.135825016675e-03, -4.673258123150e-12, 3.538366640345e-16, 5.381008014730e-13, -4.121634594958e-16
35, 4.614143484683e-11, 0.000000000000e+00, 2.500000000000e+01, -1.477176216071e-02, -9.592317026665e-07, -1.768122027028e-03, -4.138288136306e-03, -5.318009330966e-12, -9.592317026665e-16, 1.183810735874e-12, -1.272318765398e-15
36, 7.206483040034e-11, 0.000000000000e+00, 2.500000000000e+01, -1.658703305594e-02, 1.073590943997e-06, 4.921523475324e-05, -4.140618461978e-03, -6.225625047563e-12, 1.073590943997e-15, 2.092499097786e-12, -2.417750579323e-15
37, 1.009395949659e-10, 0.000000000000e+00, 2.499999999999e+01, -1.894419167670e-02, -3.345445041389e-07, 2.421239376127e-03, -4.142457652169e-03, -7.405957932195e-12, -3.345445041389e-16, 3.276757594220e-12, -5.090919927510e-15
38, 1.339706362232e-10, 0.000000000000e+00, 2.500000000003e+01, -2.245239725631e-02, 1.053622031829e-05, 5.955047260192e-03, -4.165184126857e-03, -9.159124041617e-12, 1.053622031829e-14, 5.044598216633e-12, -1.551747689135e-14
39, 1.729746349694e-10, 0.000000000000e+00, 2.499999999932e+01, -2.723039766654e-02, -1.204951844496e-05, 1.087114094205e-02, -4.096889639245e-03, -1.159035726490e-11, -1.204951844496e-14, 7.460412039393e-12, -2.360325125605e-14
40, 2.206622898749e-10, 0.000000000000e+00, 2.500000000303e+01, -3.490423641990e-02, 8.574567606409e-06, 1.800725306171e-02, -4.404741748811e-03, -1.522895159202e-11, 8.574567606409e-15, 1.122679314879e-11, 2.079574352457e-14
41, 2.808729120808e-10, 0.000000000000e+00, 2.499999999635e+01, -4.436461469743e-02, 1.359611437481e-03, 3.145816753987e-02, -6.223084584754e-03, -2.038034238451e-11, 1.359611437481e-12, 1.753104873414e-11, -1.309577328175e-12
42, 3.657141516708e-10, 0.000000000000e+00, 2.499999991445e+01, -6.343455850338e-02, 1.060079777753e-02, 6.027252243812e-02, -1.926504254873e-03, -3.346564241594e-11, 1.060079777753e-11, 2.838789805481e-11, -2.711615291689e-12
43, 4.740101473686e-10, 0.000000000000e+00, 2.499999944982e+01, -4.549143232900e-02, -1.898052199007e-02, 1.589526563124e-01, 3.527926761968e-02, -5.441565185351e-11, -1.898052199007e-11, 4.780639246720e-11, -1.403030187917e-11
44, 8.533528620231e-10, 0.000000000000e+00, 2.500000080708e+01, -7.044413052189e-01, -1.510077602782e-01, 1.159856813675e-01, 2.626688504198e-01, -2.904933177058e-10, -1.510077602782e-10, 1.197201755875e-10, 1.930617601136e-10
45, -6.261272501164e-10, -1.049015427798e-11, 2.500004559619e+01, -7.431453923059e-01, -7.764071323631e-02, -5.538668491879e+00, -4.300239855774e+00, 2.410905283524e-09, -7.764071323631e-11, 1.314373373778e-11, 6.323580517902e-10
46, 2.568204960874e-10, 1.325094979783e-10, 2.500001484829e+01, -1.473440480485e-01, -2.730002249062e-01, -1.557608836306e+00, -2.239852592355e+00, 8.462288140507e-10, -2.730002249062e-10, 1.410964199219e-10, -2.000254581028e-10
47, -7.966299654349e-11, -1.055568761764e-10, 2.500002029686e+01, -2.924864791418e-01, -7.828817427029e-02, -2.260420992332e+00, -2.241094465947e+00, 1.073513066624e-09, -7.828817427029e-11, 8.954581002905e-11, 9.920907322181e-11
48, 1.904786197820e-11, 6.046147682740e-11, 2.500001687331e+01, -1.496610513661e-01, 1.905989702642e-02, -1.996570349312e+00, -2.258170057359e+00, 1.022326789910e-09, 1.905989702642e-11, 9.887214093710e-11, -3.192771308617e-11
49, 5.858652954687e-11, -6.639600164703e-11, 2.500001641531e+01, -1.514807658989e-01, 1.182708063821e-02, -1.815516256611e+00, -2.126521044789e+00, 9.358778153495e-10, 1.182708063821e-11, 1.038600699935e-10, -5.164232409560e-11
50, -6.246134103923e-11, 9.324220411053e-11, 2.500002233828e+01, -3.127926958975e-01, 2.516518340184e-01, -2.741998036042e+00, -2.796760117226e+00, 1.307738179995e-09, 2.516518340184e-10, 9.313550992261e-11, 6.575446933064e-11
51, -2.478124768884e-11, -1.230302732857e-10, 2.500002280490e+01, -2.543087257678e-01, -1.742623666450e-01, -2.569268886314e+00, -2.765988717537e+00, 1.258088946357e-09, -1.742623666450e-10, 1.006088660837e-10, 2.248950471836e-12
52, -2.311725937374e-11, 1.201573550759e-10, 2.500002194223e+01, -1.972004316894e-01, 1.444855036452e-01, -2.657624303646e+00, -2.860425315696e+00, 1.327618221973e-09, 1.444855036452e-10, 9.740628599518e-11, -3.994220030092e-12
53, -3.724273083047e-11, -4.763150054707e-11, 2.500002092235e+01, -3.064213003706e-01, -2.126850779372e-01, -2.310746485018e+00, -2.392317996301e+00, 1.098424153221e-09, -2.126850779372e-10, 9.626156089717e-11, 5.547580525576e-11
54, 1.654807420360e-10, -1.067484691027e-11, 2.500001391059e+01, 4.105769516901e-03, 7.511474793313e-02, -1.626215357395e+00, -2.189713630315e+00, 9.303297083789e-10, 7.511474793313e-11, 1.151691449228e-10, -1.665799915370e-10
55, -1.339236911110e-10, 5.167893514520e-11, 2.500002399217e+01, -4.091704479975e-01, 3.119827655361e-01, -2.966361804187e+00, -2.849577065328e+00, 1.364795344663e-09, 3.119827655361e-10, 8.619966656792e-11, 1.445920359977e-10
56, -2.699080873747e-11, -1.297497721653e-10, 2.500002534584e+01, -2.658149282349e-01, -2.115270865738e-01, -2.872509722011e+00, -3.096804057109e+00, 1.407573265354e-09, -2.115270865738e-10, 1.042258684657e-10, -7.921299083677e-12
57, -1.946043045825e-11, 1.546007392541e-10, 2.500002381514e+01, -2.017577709427e-01, 1.504765120549e-01, -2.889650849314e+00, -3.086126852738e+00, 1.444046071145e-09, 1.504765120549e-10, 1.000995319588e-10, 1.861530247218e-12
58, 4.366160450888e-11, -1.369139436577e-10, 2.500002203313e+01, -2.077442956838e-01, -1.734575306136e-01, -2.467659922409e+00, -2.751274799518e+00, 1.237785619763e-09, -1.734575306136e-10, 1.078278064000e-10, -3.397963215434e-11
59, 2.216599753297e-12, 1.239299638503e-10, 2.500002281448e+01, -2.050796506423e-01, 2.658776881433e-01, -2.791326508126e+00, -3.021930155170e+00, 1.395187091277e-09, 2.658776881433e-10, 1.020636625352e-10, -1.323816098644e-11
60, -6.031416247547e-11, -1.178060142325e-10, 2.500002760355e+01, -3.000196290004e-01, -1.160782889958e-01, -3.154392157905e+00, -3.270474230151e+00, 1.528177081964e-09, -1.160782889958e-10, 1.009908175118e-10, 4.294978138884e-11
61, -5.356432634819e-11, 8.512601155149e-11, 2.500002548020e+01, -2.345813620019e-01, 2.205531827512e-02, -2.859133447177e+00, -3.013704453827e+00, 1.410687997374e-09, 2.205531827512e-11, 9.841195478654e-11, 2.112645146165e-11
62, 1.992963283686e-11, -4.912644505682e-11, 2.500001978293e+01, -2.216062464527e-01, -2.044119678027e-01, -2.166038976556e+00, -2.389947178721e+00, 1.075070267360e-09, -2.044119678027e-10, 1.028539023079e-10, -9.100198774495e-12
63, 1.320276181811e-10, -3.187469127611e-12, 2.500001597996e+01, -4.482097824364e-02, 1.397788282173e-01, -1.911726368407e+00, -2.400572338817e+00, 1.045436425546e-09, 1.397788282173e-10, 1.119837304640e-10, -1.324392547411e-10
64, -1.860697197012e-10, 6.392762869373e-11, 2.500002710177e+01, -3.936087332907e-01, 1.866346459251e-01, -3.345089086874e+00, -3.158429076565e+00, 1.555212818893e-09, 1.866346459251e-10, 7.947264210122e-11, 1.728026472559e-10
65, 4.828214755615e-12, -7.037742345860e-11, 2.500001980565e+01, -2.901514677839e-01, -3.299570574313e-01, -2.166731065325e+00, -2.372404714976e+00, 1.039287064601e-09, -3.299570574313e-10, 1.009972658308e-10, -1.839558994607e-12
66, 1.782782794165e-10, 2.677507467786e-11, 2.500001393611e+01, 1.178237166147e-02, 1.638888890959e-01, -1.640752246379e+00, -2.224477167815e+00, 9.426306242124e-10, 1.638888890959e-10, 1.163633151920e-10, -1.754991455257e-10
67, -1.751582608810e-10, 2.415867795842e-11, 2.500002701328e+01, -4.151387440934e-01, 2.479186687723e-01, -3.348967549667e+00, -3.170204906920e+00, 1.549848202650e-09, 2.479186687723e-10, 8.293379986305e-11, 1.723151212366e-10
68, -7.909930532549e-11, -5.825798525623e-11, 2.500002328878e+01, -3.058977029497e-01, -2.864223688456e-01, -2.585976937397e+00, -2.706382651679e+00, 1.236757315359e-09, -2.864223688456e-10, 9.671769813538e-11, 3.651484099397e-11
69, 8.471414843963e-11, 7.194222043290e-11, 2.500001669472e+01, -8.226963108763e-02, 5.468343548534e-03, -1.959650543494e+00, -2.366030840799e+00, 1.046950326516e-09, 5.468343548534e-12, 1.082598703125e-10, -9.493027833994e-11
70, 3.560196538903e-12, -3.505006645531e-11, 2.500001827250e+01, -2.333025642035e-01, -2.512101332128e-03, -2.021205575679e+00, -2.183737049320e+00, 9.932256938831e-10, -2.512101332128e-12, 9.927418814543e-11, 1.800845132482e-11
71, 3.904023823965e-11, -3.395969061116e-11, 2.500001811211e+01, -1.461762195820e-01, 8.445851688778e-02, -2.192667232794e+00, -2.500562679082e+00, 1.125967073419e-09, 8.445851688778e-11, 1.027215668128e-10, -5.122615633147e-11
72, -1.257289314755e-10, 4.806206320903e-11, 2.500002435102e+01, -3.163441304195e-01, 1.172714054650e-01, -2.988221942485e+00, -2.957815757075e+00, 1.422000945317e-09, 1.172714054650e-10, 8.606203928424e-11, 1.012651319893e-10
73, -3.620865295824e-11, -8.106534581866e-12, 2.500001986726e+01, -2.875565517681e-01, -2.398093650670e-01, -2.177130886641e+00, -2.304281571189e+00, 1.041118667107e-09, -2.398093650670e-10, 9.633149967024e-11, 3.275615739642e-11
74, 1.753123761926e-10, -6.324634375172e-12, 2.500001323281e+01, 5.364023747242e-03, 6.133582815777e-02, -1.534947132344e+00, -2.104258683454e+00, 8.864521474020e-10, 6.133582815777e-11, 1.162965693566e-10, -1.683592061985e-10
75, -1.056759810429e-10, 4.957171172552e-11, 2.500002321157e+01, -3.947557737049e-01, 3.085026686129e-01, -2.862219646101e+00, -2.787483660446e+00, 1.322821460914e-09, 3.085026686129e-10, 8.908952471578e-11, 1.264575175432e-10
76, -6.039743807760e-11, -1.180721602548e-10, 2.500002383733e+01, -2.701802857949e-01, -2.129206887367e-01, -2.687298378766e+00, -2.845376521892e+00, 1.306306345130e-09, -2.129206887367e-10, 9.774729864440e-11, 1.870822708175e-11
77, -3.895096509913e-12, 1.636590180538e-10, 2.500002187543e+01, -1.901734065553e-01, 1.260310535298e-01, -2.638106132798e+00, -2.859449224164e+00, 1.323573099445e-09, 1.260310535298e-10, 9.960673632340e-11, -1.106480935975e-11
78, 6.518692571901e-11, -1.381660334293e-10, 2.500001906131e+01, -2.004633243857e-01, -1.808076613141e-01, -2.108341400647e+00, -2.400756792071e+00, 1.060706901335e-09, -1.808076613141e-10, 1.067678632047e-10, -3.943983250722e-11
79, 6.543280532160e-11, 8.148352110825e-11, 2.500001981036e+01, -1.699390170426e-01, 3.751897925925e-01, -2.443481510119e+00, -2.805898131125e+00, 1.244196125632e-09, 3.751897925925e-10, 1.074248790940e-10, -7.378343140949e-11
80, -2.874289078732e-10, 5.804798315876e-11, 2.500003531580e+01, -4.595935645618e-01, -6.328919622560e-02, -4.365005009257e+00, -3.960790905480e+00, 2.027490051003e-09, -6.328919622560e-11, 7.478432865541e-11, 2.768913805436e-10
81, 3.301871136211e-10, -9.487401680300e-11, 2.500001642866e+01, -2.668935435401e-01, 1.971984536541e-01, -1.877717504637e+00, -2.647579309819e+00, 9.606235560190e-10, 1.971984536541e-10, 1.552115754707e-10, -2.297193271204e-10
82, -6.303462629031e-10, -1.171191293174e-10, 2.500005343761e+01, -6.892122482120e-01, -1.180566934675e-01, -6.599192919672e+00, -5.584405728921e+00, 2.976053846603e-09, -1.180566934675e-10, 2.106351087318e-11, 5.284571062489e-10
83, -1.171115699210e-11, 1.719597599076e-10, 2.500002545593e+01, -1.697232978160e-01, -4.942113609475e-01, -3.017826387387e+00, -3.474572711705e+00, 1.536726668407e-09, -4.942113609475e-10, 1.126751236214e-10, -1.156980385374e-10
84, 1.452450965340e-10, -1.406666024209e-14, 2.499999999987e+01, -2.345950971533e-02, -1.354093212235e-05, 6.901534777894e-03, -4.119541362659e-03, -9.665762218995e-12, -1.354093212235e-14, 5.514760027616e-12, 4.221957339412e-15
85, 1.505224809580e-10, 2.255279244112e-14, 2.499999999928e+01, -2.399648908801e-02, -2.162312758279e-05, 7.569537698680e-03, -4.063252455155e-03, -9.976198191453e-12, -2.162312758279e-14, 5.806815201892e-12, -9.579875026148e-15
86, 1.351168929427e-10, -2.438748064445e-14, 2.499999999999e+01, -2.236745198391e-02, 1.640422630557e-05, 5.832720868551e-03, -4.129800866381e-03, -9.117402307368e-12, 1.640422630557e-14, 4.982684118865e-12, 1.423251398849e-15
87, 1.925052524120e-10, 1.667756037065e-14, 2.499999999925e+01, -2.993512905569e-02, 3.606937085712e-05, 1.323346805278e-02, -3.826530737496e-03, -1.295051780547e-11, 3.606937085712e-14, 8.633780748764e-12, 1.037813536242e-13
88, 2.217822266132e-10, 8.388963198073e-14, 2.499999999825e+01, -3.497910226497e-02, 4.286267689698e-05, 1.845896631273e-02, -3.746209664026e-03, -1.554296001591e-11, 4.286267689698e-14, 1.117607427293e-11, 7.348628455671e-14
89, 2.778199118814e-10, 1.104550342366e-12, 2.500000001608e+01, -4.355776433360e-02, -1.810990352838e-03, 2.632854790457e-02, -7.763850087596e-03, -1.859293382585e-11, -1.810990352838e-12, 1.635022229323e-11, -6.959767028513e-13
90, 2.911952542877e-10, -1.478310219814e-13, 2.499999999665e+01, -4.845729482072e-02, 3.366123514654e-04, 3.238580604062e-02, -3.726019413335e-03, -2.240713440853e-11, 3.366123514654e-13, 1.801441602214e-11, -4.149670484041e-14
91, 2.802612493641e-10, 8.868154690550e-14, 2.500000001945e+01, -4.596666856451e-02, 2.354989910845e-04, 2.640224493482e-02, -6.759333402051e-03, -1.960994342940e-11, 2.354989910845e-13, 1.657451332027e-11, -6.275848165694e-15
92, 2.881347595069e-10, -1.266033951295e-12, 2.500000004333e+01, -4.775499499488e-02, 1.786275125806e-03, 2.595065290475e-02, -9.245692555918e-03, -1.916408096847e-11, 1.786275125806e-12, 1.768874298135e-11, 9.057025101133e-14
93, 7.752214194370e-11, 1.087648636798e-14, 2.500000000000e+01, -1.683599966281e-02, -4.442418509838e-06, 2.952816966788e-04, -4.141794522246e-03, -6.349702931382e-12, -4.442418509838e-15, 2.215937748364e-12, -2.600361098534e-15
94, 7.310384729369e-11, -1.979644779817e-14, 2.500000000001e+01, -1.641372482119e-02, 1.033858705464e-06, -1.363846058897e-04, -4.137089743476e-03, -6.137916739902e-12, 1.033858705464e-15, 2.000753367749e-12, 4.007989559660e-16
95, 3.085131613623e-10, -5.597363405340e-13, 2.500000005089e+01, -5.511598459700e-02, 4.182262342153e-04, 3.022350726534e-02, -7.695321030128e-03, -2.266119307819e-11, 4.182262342153e-13, 2.000855285298e-11, 1.049138705246e-12
96, 6.261198239722e-11, 7.934422120684e-16, 2.500000000000e+01, -1.585214050895e-02, 6.944689155277e-07, -7.014782274894e-04, -4.133237506153e-03, -5.857359467766e-12, 6.944689155277e-16, 1.717971672964e-12, 2.092033632552e-15
97, 6.250963574658e-11, 6.614745277387e-15, 2.500000000000e+01, -1.579877043729e-02, -3.537203049620e-06, -7.515359736285e-04, -4.135904558534e-03, -5.830737656116e-12, -3.537203049620e-15, 1.692879575717e-12, 6.952832638752e-16
98, 3.384830733467e-10, -2.798853316264e-13, 2.500000008171e+01, -6.338048414923e-02, 1.919276264144e-03, 3.301975490866e-02, -9.881870070922e-03, -2.466458216513e-11, 1.919276264144e-12, 2.353553736381e-11, 2.084724874019e-12
99, 6.555416232536e-11, -2.162059710549e-14, 2.500000000000e+01, -1.592363831205e-02, 1.475507785903e-06, -6.257791279238e-04, -4.137682475574e-03, -5.893104480810e-12, 1.475507785903e-15, 1.755825111254e-12, -1.265625712630e-16
100, 3.632334671787e-10, 4.195112912278e-12, 2.499999997203e+01, -7.018652201731e-02, -8.917465862572e-03, 4.978525553079e-02, -1.771886831516e-03, -3.330661890845e-11, -8.917465862572e-12, 2.667926986560e-11, 9.006986844503e-13
101, 3.452602903482e-10, 5.633887076423e-13, 2.500000005139e+01, -6.878942057952e-02, -7.865615935163e-04, 3.840555495767e-02, -5.628252632961e-03, -2.892991908754e-11, -7.865615935163e-13, 2.466756868106e-11, 2.650664885742e-12
102, 1.385264214102e-10, -8.829642729260e-15, 2.500000000003e+01, -2.266804035100e-02, -1.351554362447e-05, 6.121769269953e-03, -4.141976763173e-03, -9.264325734731e-12, -1.351554362447e-14, 5.130579075746e-12, -1.293940817484e-15
103, 1.387583245897e-10, -2.581978096647e-16, 2.500000000019e+01, -2.289860716547e-02, 9.269212948428e-06, 6.295730324086e-03, -4.131509466878e-03, -9.369562472778e-12, 9.269212948428e-15, 5.227606272000e-12, 1.398637651855e-14
104, 3.878139198626e-10, 2.576890424279e-13, 2.500000006257e+01, -8.161648921036e-02, -1.399626920793e-03, 4.870741706031e-02, -7.815803175515e-03, -3.432040871101e-11, -1.399626920793e-12, 3.084154442433e-11, 2.579934306412e-12
105, 5.305328055203e-11, -1.083300156066e-14, 2.500000000000e+01, -1.513397023779e-02, 2.318335226606e-06, -1.411984454782e-03, -4.140023526306e-03, -5.498325492578e-12, 2.318335226606e-15, 1.362667398925e-12, -1.352136837146e-15
106, 4.418211720093e-10, 5.997601362821e-12, 2.499999976344e+01, -8.863844125600e-02, -1.180669405111e-02, 1.047154077915e-01, 3.036936744950e-02, -5.769303878760e-11, -1.180669405111e-11, 3.898388573615e-11, 1.810865565150e-12
107, 3.966156036808e-10, 5.259750440606e-13, 2.499999983231e+01, -7.348207813000e-02, -2.453124735246e-03, 7.678726814478e-02, 1.395832456110e-02, -4.390364466454e-11, -2.453124735246e-12, 3.123102847285e-11, -1.834433189944e-13
108, 1.227136712909e-10, -1.866783713014e-14, 2.499999999996e+01, -2.099030445397e-02, -6.564140501357e-06, 4.457044559889e-03, -4.141608791376e-03, -8.428908023078e-12, -6.564140501357e-15, 4.294766483852e-12, -4.560191779914e-15
109, 1.320850856672e-10, -1.742695930621e-14, 2.500000000021e+01, -2.189190109577e-02, -7.558320224494e-06, 5.322881040319e-03, -4.171822737704e-03, -8.863778038042e-12, -7.558320224494e-15, 4.743613030005e-12, -3.738859006331e-15
110, 4.750374302799e-10, -1.336398749525e-11, 2.499999969242e+01, -7.282645886249e-02, 1.896246058374e-02, 1.289176266229e-01, 2.933717151705e-02, -5.667766304632e-11, 1.896246058374e-11, 4.419437969640e-11, -5.595847856545e-12
111, 4.521326543334e-10, 2.251141633158e-11, 2.500000068264e+01, -7.687259270762e-02, -3.775190737122e-02, -6.337460643127e-03, -1.037183437256e-01, 3.674760227513e-12, -3.775190737122e-11, 3.894232625976e-11, -9.748115281490e-12
112, 4.901896553482e-11, 8.683425942735e-15, 2.500000000000e+01, -1.483674854700e-02, -5.036723648427e-06, -1.709606744328e-03, -4.136244340750e-03, -5.350069431703e-12, -5.036723648427e-15, 1.213501469634e-12, 1.826714226250e-16
113, 1.341029145017e-10, 2.792438401224e-14, 2.500000000004e+01, -2.212979373409e-02, -8.309926143020e-06, 5.596920736629e-03, -4.145676136969e-03, -8.995972043219e-12, -8.309926143020e-15, 4.867385192140e-12, -3.913244658949e-15
114, 4.937716749320e-11, -2.852104870621e-15, 2.500000000000e+01, -1.487955966537e-02, -9.189718140087e-07, -1.674023802373e-03, -4.134240797313e-03, -5.371028144259e-12, -9.189718140087e-16, 1.231739787241e-12, 1.631289770586e-15
115, 4.512736560138e-10, -1.831518934137e-11, 2.500000060235e+01, -7.027120370313e-02, 3.420837917488e-02, 1.403521329070e-02, -7.938212946815e-02, -2.126993024877e-12, 3.420837917488e-11, 4.002621547204e-11, -6.682455907387e-12
116, 2.412089732933e-10, 3.291485634834e-13, 2.499999998992e+01, -3.787080130744e-02, -4.267748867608e-04, 2.250119304161e-02, -2.982485253036e-03, -1.743766762783e-11, -4.267748867608e-13, 1.274832954670e-11, 6.490399373162e-15
117, 1.462539755876e-10, -1.059331404962e-14, 2.500000000001e+01, -2.351471873543e-02, 1.161797043874e-05, 6.997805069419e-03, -4.146817756677e-03, -9.690794688584e-12, 1.161797043874e-14, 5.565467213838e-12, -6.844199209591e-15
118, 4.610361327433e-10, -2.519166131299e-12, 2.500000008977e+01, -3.341812959894e-02, 1.671772841347e-02, 9.007032217406e-02, -5.487915672419e-02, -1.831481143611e-11, 1.671772841347e-11, 4.342941445039e-11, -2.904532499874e-11
119, 2.303362047446e-10, -2.850775154260e-13, 2.499999999783e+01, -3.604964899405e-02, 5.217227045766e-04, 1.973207436304e-02, -3.746392407200e-03, -1.610548864714e-11, 5.217227045766e-13, 1.178537303141e-11, 4.613964628815e-14
120, 4.022821457328e-10, -4.113121473722e-12, 2.500000032647e+01, -5.753421711139e-02, -6.527701062802e-03, 2.096591582164e-02, -5.767218446194e-02, -6.244248885772e-12, -6.527701062802e-12, 3.300581758074e-11, -6.313232561045e-12
121, 4.426658127828e-10, -2.731676519267e-12, 2.500000103060e+01, -1.229472385296e-01, 3.588836109720e-03, -4.122746608550e-02, -9.071600702955e-02, -1.693124104290e-12, 3.588836109720e-12, 3.916676211778e-11, 1.442249164576e-11
122, 4.536706609081e-10, 2.593983389418e-11, 2.500000027678e+01, -6.423355465074e-02, -4.846727696279e-02, 5.793338854441e-02, -5.983288181096e-02, -1.865355337943e-11, -4.846727696279e-11, 4.242991821814e-11, -1.645321695954e-11
123, 2.197333231181e-10, -4.657947320798e-14, 2.499999999843e+01, -3.448110730010e-02, 9.945889913079e-05, 1.776808012748e-02, -3.644826327028e-03, -1.526521695239e-11, 9.945889913079e-14, 1.085937676140e-11, 1.529235341449e-13
124, 4.464169665149e-10, 6.558667078240e-12, 2.500000090172e+01, -1.017441538657e-01, 1.224363339342e-03, -4.944059661933e-02, -1.162261994527e-01, 1.158332015679e-11, 1.224363339342e-12, 3.773509877996e-11, 4.342297363259e-12
125, 2.021805198046e-10, -5.230480270090e-14, 2.499999999942e+01, -3.116600157748e-02, -4.112915864255e-05, 1.478587786832e-02, -4.088067889987e-03, -1.355718660436e-11, -4.112915864255e-14, 9.418753118540e-12, -1.821976061612e-14
126, 2.006886885525e-10, -8.106042408517e-14, 2.500000000327e+01, -3.128368522974e-02, 1.191542674246e-04, 1.413770069553e-02, -4.438483749595e-03, -1.335356576006e-11, 1.191542674246e-13, 9.357127202577e-12, 6.903498001671e-14
127, 4.541211444235e-10, -2.061410800380e-12, 2.500000110525e+01, -1.328612900837e-01, -8.588324888190e-03, -4.688393480442e-02, -9.654736821345e-02, -1.752975018480e-12, -8.588324888190e-12, 4.123570262116e-11, 1.640398591664e-11
128, 2.166259542830e-10, 5.816052738210e-14, 2.500000000057e+01, -3.385632792757e-02, -1.105006477138e-04, 1.698473387238e-02, -3.985182283673e-03, -1.482759089982e-11, -1.105006477138e-13, 1.059294000015e-11, 1.079819221249e-13
129, 1.154545221638e-10, -1.712492395900e-14, 2.500000000001e+01, -2.016018160255e-02, 6.613768921736e-06, 3.613820057831e-03, -4.136436177097e-03, -8.011519464986e-12, 6.613768921736e-15, 3.875481365203e-12, 3.532477388129e-16
130, 1.978819697300e-10, 1.052518400137e-14, 2.500000000000e+01, -3.079164032947e-02, -1.053799598372e-04, 1.403008689003e-02, -3.935879664559e-03, -1.333437500820e-11, -1.053799598372e-13, 9.076488601548e-12, 9.350532425260e-14
131, 9.213950164947e-11, -1.679762972398e-14, 2.499999999999e+01, -1.812375177660e-02, 2.738560390513e-06, 1.562220165316e-03, -4.133329275790e-03, -6.992535411117e-12, 2.738560390513e-15, 2.850450559843e-12, 2.675839290051e-15
132, 3.658354064961e-11, -1.828730177079e-14, 2.500000000000e+01, -1.415957506986e-02, 1.798558828999e-06, -2.387499025091e-03, -4.135499217071e-03, -5.011559971916e-12, 1.798558828999e-15, 8.744780504691e-13, 4.779544788876e-16
133, 9.540017342228e-11, 2.506452074665e-14, 2.499999999997e+01, -1.838981298401e-02, -4.111823843097e-06, 1.843524492444e-03, -4.131734808516e-03, -7.128054945152e-12, -4.111823843097e-15, 2.988613793074e-12, 9.841425941676e-16
134, 2.604669922784e-10, 4.775125045200e-13, 2.499999998142e+01, -4.139167939083e-02, -5.688594380399e-04, 2.756674768490e-02, -2.628669460756e-03, -1.966974045658e-11, -5.688594380399e-13, 1.480947308128e-11, -2.882354915456e-13
135, 8.671553545040e-11, -1.294045680093e-14, 2.499999999999e+01, -1.759306535403e-02, 8.205077590936e-06, 1.057000551608e-03, -4.133346974404e-03, -6.729887649993e-12, 8.205077590936e-15, 2.595145302827e-12, -2.846017866416e-17
136, 8.666331337374e-11, 6.068993753830e-15, 2.500000000000e+01, -1.753830328684e-02, -9.516080545296e-07, 1.004446006785e-03, -4.137171334316e-03, -6.702027590048e-12, -9.516080545296e-16, 2.569347056767e-12, -1.461613783413e-15
137, 2.193006437802e-10, -1.634311431544e-13, 2.499999999827e+01, -3.448434559958e-02, -2.789743564926e-05, 1.776318778630e-02, -3.619305962353e-03, -1.527244502138e-11, -2.789743564926e-14, 1.085132167156e-11, 1.600747972291e-13
138, 4.888930729227e-10, 9.682430823281e-12, 2.500000131902e+01, -1.171328911865e-01, -7.196610403659e-03, -7.621252333939e-02, -1.650239967813e-01, 2.467288842439e-11, -7.196610403659e-12, 4.513307234794e-11, 7.273356270075e-13
139, 3.480187201169e-11, -3.095052718955e-15, 2.500000000000e+01, -1.404555070624e-02, 2.799203680510e-06, -2.496461033206e-03, -4.135609812290e-03, -4.955052871099e-12, 2.799203680510e-15, 8.194919654164e-13, -8.242412535455e-17
140, 1.094339526990e-10, 1.716446970365e-14, 2.499999999996e+01, -1.972035246616e-02, -5.870513080993e-06, 3.157261348964e-03, -4.130130143334e-03, -7.792097671213e-12, -5.870513080993e-15, 3.646709236350e-12, 3.013490201111e-15
141, 3.474403133312e-11, 6.535743704133e-15, 2.500000000000e+01, -1.400386201006e-02, -1.966386793156e-06, -2.537007845745e-03, -4.136860619373e-03, -4.934168029457e-12, -1.966386793156e-15, 7.992590527025e-13, -6.673341116927e-16
142, 1.089853459105e-10, 2.490468995291e-16, 2.499999999999e+01, -1.966002048550e-02, -6.258504334258e-06, 3.101596583429e-03, -4.132722315470e-03, -7.761298180405e-12, -6.258504334258e-15, 3.619510354061e-12, 2.350904611510e-15
143, 4.785030716876e-10, -1.141297563808e-11, 2.500000118062e+01, -1.700551090838e-01, -4.315471240175e-03, -4.942295772737e-02, -9.048762920499e-02, -1.388541257626e-11, -4.315471240175e-12, 4.643066310196e-11, 2.589832736315e-11
144, 3.622197742418e-11, 3.099308101160e-15, 2.500000000000e+01, -1.410523215208e-02, -1.394747866541e-06, -2.436591839379e-03, -4.139265876746e-03, -4.984470974464e-12, -1.394747866541e-15, 8.498491818867e-13, -1.487836796857e-15
145, 2.330636760802e-10, -2.182459382701e-14, 2.500000000973e+01, -3.718399111887e-02, -2.530860173900e-05, 1.885421737465e-02, -5.025802132156e-03, -1.588105756593e-11, -2.530860173900e-14, 1.213804668083e-11, 1.980369274292e-13
146, 9.316403158319e-11, -1.138622956292e-14, 2.500000000000e+01, -1.813049261860e-02, 1.169229811648e-08, 1.593446933862e-03, -4.141241212033e-03, -6.997515901895e-12, 1.169229811648e-17, 2.864453874337e-12, -2.890198610374e-15
147, 5.124150813159e-10, -3.517175227928e-12, 2.500000184311e+01, -2.243969198999e-01, 1.032666357902e-02, -1.263250500224e-01, -1.398904956221e-01, 1.245745210412e-12, 1.032666357902e-11, 5.028168014918e-11, 4.349895734932e-11
148, 4.835798229787e-10, 4.646896313744e-12, 2.500000153885e+01, -1.767458710760e-01, 2.060298092054e-02, -9.515244116571e-02, -1.293317873668e-01, 4.906658867818e-12, 2.060298092054e-11, 4.570337382297e-11, 2.861370072243e-11
149, 8.575574934513e-11, -1.364869861842e-14, 2.500000000000e+01, -1.746261076756e-02, 4.336158022114e-06, 9.216920909771e-04, -4.135684448787e-03, -6.663522288037e-12, 4.336158022114e-15, 2.528629141231e-12, -5.912865070639e-17
150, 3.020380550825e-10, -3.513692547514e-13, 2.499999998648e+01, -4.955793969054e-02, -5.761842490577e-04, 3.609564182054e-02, -3.067581288910e-03, -2.364095982970e-11, -5.761842490577e-13, 1.918583092584e-11, -3.957806288876e-13
151, 3.009491092036e-10, -1.166872356242e-12, 2.500000002575e+01, -5.038427194885e-02, 2.812482087536e-03, 3.090990423480e-02, -7.850788725532e-03, -2.142617498694e-11, 2.812482087536e-12, 1.922091310488e-11, -1.594333752842e-13
152, 2.865277060129e-11, -1.194538741973e-14, 2.500000000000e+01, -1.374729612138e-02, -2.371731996990e-07, -2.800771365487e-03, -4.134486076451e-03, -4.805387340946e-12, -2.371731996990e-16, 6.678750370019e-13, 1.017681520195e-15
153, 1.968973631221e-10, 1.176564281862e-13, 2.500000000067e+01, -3.060626461595e-02, -1.403317628307e-04, 1.390582757365e-02, -4.233156759735e-03, -1.318109374821e-11, -1.403317628307e-13, 9.074952346593e-12, 5.460179900759e-15
154, 5.588985601490e-10, -2.030418292486e-12, 2.500000266375e+01, -3.463768354199e-01, -1.898966162968e-02, -2.158881922551e-01, -1.845912441313e-01, -4.470835409549e-12, -1.898966162968e-11, 6.077348617287e-11, 7.642196023480e-11
155, 1.791476475566e-10, 1.926200812678e-14, 2.500000000132e+01, -2.799742130541e-02, -3.882049693918e-05, 1.119775690882e-02, -4.220754760865e-03, -1.185389736189e-11, -3.882049693918e-14, 7.743691745218e-12, 3.443591037714e-14
156, 1.941129500696e-10, 9.204426822690e-15, 2.500000000171e+01, -3.014056351855e-02, -6.229460111465e-05, 1.346525592098e-02, -4.403800322954e-03, -1.290353445467e-11, -6.229460111465e-14, 8.899375265094e-12, -3.515285687451e-14
157, 5.350444479466e-10, -1.825049880451e-12, 2.500000241679e+01, -3.148977687718e-01, 4.993349306410e-04, -1.776221622856e-01, -1.444108843696e-01, -1.278186646222e-11, 4.993349306410e-13, 5.585593678087e-11, 7.246157573885e-11
158, 3.248156743576e-11, 3.976708721630e-15, 2.500000000000e+01, -1.396235678426e-02, 1.027130518183e-07, -2.586789113453e-03, -4.134722020063e-03, -4.912888029882e-12, 1.027130518183e-16, 7.748958055197e-13, 9.293522148930e-16
159, 3.324706457402e-11, -1.867129907314e-14, 2.500000000000e+01, -1.396582544520e-02, 1.692960010881e-06, -2.576754881029e-03, -4.136985545380e-03, -4.914980850249e-12, 1.692960010881e-15, 7.795544318389e-13, -5.609003364566e-16
160, 5.361169270272e-10, -2.161823851049e-11, 2.500000226832e+01, -1.992223641513e-01, -2.955610543425e-03, -1.261467063940e-01, -2.122162938134e-01, 2.330484091546e-11, -2.955610543425e-12, 5.984266979412e-11, 1.680787608440e-11
161, 3.236622036307e-11, 3.173556095154e-15, 2.500000000000e+01, -1.390250936083e-02, -1.239560651267e-06, -2.643482371418e-03, -4.134542411873e-03, -4.883172209067e-12, -1.239560651267e-15, 7.463412856375e-13, 8.112654097518e-16
162, 1.977201245834e-10, -6.164372760397e-14, 2.500000000073e+01, -3.072099864692e-02, 5.515753497844e-05, 1.411353905438e-02, -4.262144601181e-03, -1.324432779660e-11, 5.515753497844e-14, 9.172941054050e-12, -1.490077372970e-14
163, 5.213855444637e-10, -8.966157526636e-12, 2.500000179032e+01, -2.310559486411e-01, -3.883421836470e-04, -1.179723499843e-01, -1.358781358982e-01, -5.205242471263e-12, -3.883421836470e-13, 5.133655685716e-11, 4.238366390021e-11
164, 2.938428818624e-10, 1.020744020116e-12, 2.500000003069e+01, -4.828925736579e-02, -6.779843836011e-04, 3.012291671169e-02, -8.459659706743e-03, -2.067276123876e-11, -6.779843836011e-13, 1.853332579998e-11, -7.579624092380e-13
165, 2.039064855984e-10, -4.581553640364e-14, 2.500000000356e+01, -3.190852090257e-02, 9.055838220469e-05, 1.464727664570e-02, -4.387003694176e-03, -1.365888355846e-11, 9.055838220469e-14, 9.619015215681e-12, 1.018750457417e-13
166, 3.101800211290e-10, -2.091654889990e-12, 2.500000003730e+01, -5.526070219151e-02, 4.491174101600e-03, 3.296998186582e-02, -7.002931291552e-03, -2.352542267556e-11, 4.491174101600e-12, 2.058991935310e-11, 6.034627744194e-13
167, 2.638374359924e-10, 2.214380980512e-13, 2.500000001160e+01, -4.177898270033e-02, -4.881230173776e-04, 2.451133403368e-02, -6.545461454202e-03, -1.804826323101e-11, -4.881230173776e-13, 1.509689513599e-11, -4.315026079500e-13
168, 7.414075240470e-11, -2.192950492313e-14, 2.500000000000e+01, -1.664752786813e-02, 2.483858442332e-06, 9.683564434813e-05, -4.136792260774e-03, -6.255024583517e-12, 2.483858442332e-15, 2.117157172722e-12, 3.432201608768e-16
169, 3.135666454287e-11, 7.220505207846e-15, 2.500000000000e+01, -1.382515476148e-02, -2.032216000159e-06, -2.723400011750e-03, -4.138496398793e-03, -4.843997062376e-12, -2.032216000159e-15, 7.068803124896e-13, -6.678810319567e-16
170, 2.768892642440e-10, 3.492925018745e-13, 2.500000001100e+01, -4.438454715930e-02, -1.363132963711e-05, 2.839293508915e-02, -6.475872474121e-03, -1.966774449828e-11, -1.363132963711e-14, 1.672099662595e-11, -7.134071556882e-13
171, 1.507839971661e-10, -2.729922935898e-14, 2.500000000004e+01, -2.415247276910e-02, 1.225135392154e-05, 7.650091272266e-03, -4.147185707651e-03, -1.000939934420e-11, 1.225135392154e-14, 5.891882676481e-12, -6.755813477233e-15
172, 1.556056469990e-10, -1.636491014116e-14, 2.499999999988e+01, -2.507882974426e-02, -1.121506146737e-06, 8.519611602251e-03, -4.114612455022e-03, -1.047575220176e-11, -1.121506146737e-15, 6.323468471498e-12, 6.356442861818e-15
173, 1.508466228768e-10, -4.163321407062e-14, 2.499999999954e+01, -2.409395928591e-02, 3.586561787771e-05, 7.605795688476e-03, -4.058129377392e-03, -1.001071873495e-11, 3.586561787771e-14, 5.839158752244e-12, 7.196219310695e-15
174, 1.571137924029e-10, 5.552669211906e-14, 2.499999999930e+01, -2.491326582627e-02, -4.131007399661e-05, 8.453571188045e-03, -4.044308646897e-03, -1.043404800428e-11, -4.131007399661e-14, 6.249370502878e-12, 4.305854075036e-16
175, 5.329747601795e-10, -5.006236558036e-12, 2.500000211907e+01, -2.586173953068e-01, -1.734520107319e-02, -1.534283106885e-01, -1.552152809967e-01, 2.028707220336e-12, -1.734520107319e-11, 5.462324952950e-11, 5.372976437543e-11
176, 5.714397956491e-10, -4.996160736094e-12, 2.500000268038e+01, -3.448347299475e-01, -3.177617837514e-02, -2.101360277310e-01, -1.876086249672e-01, -3.968388841338e-12, -3.177617837514e-11, 6.338096226688e-11, 7.464466364882e-11
177, 2.949697340125e-10, -4.761775572999e-13, 2.500000003271e+01, -4.853329910466e-02, 1.685856885033e-04, 3.006387874566e-02, -8.395332489949e-03, -2.064746783268e-11, 1.685856885033e-13, 1.865112109248e-11, -5.784845253258e-13
178, 5.658172721358e-10, -3.568495488734e-12, 2.500000220592e+01, -2.818746200709e-01, 3.056448563405e-02, -1.135854264789e-01, -1.433721320141e-01, -2.028202022640e-11, 3.056448563405e-11, 6.386257656963e-11, 4.896922380202e-11
179, 2.680848281107e-10, 6.569284382458e-14, 2.500000001869e+01, -4.208316522194e-02, -5.041269049461e-04, 2.521842272473e-02, -7.272559560916e-03, -1.802020616961e-11, -5.041269049461e-13, 1.563058780373e-11, -6.149033390943e-13
180, 2.841710554630e-10, -1.976424321417e-13, 2.500000001636e+01, -4.588654532774e-02, 8.141870760339e-04, 2.779280230553e-02, -6.806521339029e-03, -1.991402521901e-11, 8.141870760339e-13, 1.692564859762e-11, -3.740132246575e-13
181, 7.048867123051e-11, 1.696281026258e-14, 2.499999999998e+01, -1.628700290188e-02, -3.549632916282e-06, -2.639993310875e-04, -4.131539770149e-03, -6.075866667680e-12, -3.549632916282e-15, 1.935635117717e-12, 1.864898186462e-15
182, 7.434721433665e-11, -1.372113601850e-15, 2.500000000000e+01, -1.667343606682e-02, -1.249180752178e-06, 1.227510825258e-04, -4.134112142317e-03, -6.268226756666e-12, -1.249180752178e-15, 2.129866818007e-12, 1.435205585799e-15
183, 9.068544738259e-10, -2.459229199495e-11, 2.499999638765e+01, -3.446735476740e-01, 4.515324181306e-03, 7.854864212363e-01, 5.289121469642e-01, -4.211069073037e-10, 4.515324181306e-12, 1.439730771515e-10, 1.568594001540e-11
184, 5.222538354103e-10, -5.937147890028e-12, 2.500000169676e+01, -2.253074287969e-01, 1.407956080960e-02, -8.076951623877e-02, -1.102716401985e-01, -1.901748891793e-11, 1.407956080960e-11, 5.325146736111e-11, 3.850040538127e-11
185, 9.198873551704e-10, 1.096312321971e-11, 2.499999627435e+01, -3.429726163433e-01, -1.180148657660e-02, 7.743461630620e-01, 5.193505382922e-01, -4.136804772840e-10, -1.180148657660e-11, 1.449789124187e-10, 1.748110003380e-11
186, 1.794932500634e-10, -4.634552944524e-14, 2.500000000096e+01, -2.818999245807e-02, 8.514271720662e-05, 1.151963526642e-02, -4.285818201163e-03, -1.196651139390e-11, 8.514271720662e-14, 7.888302468338e-12, -1.442426545227e-14
187, 2.963236045809e-10, 2.842131996684e-13, 2.500000000944e+01, -4.636019844587e-02, -6.111016902953e-04, 3.157754269588e-02, -7.923773450611e-03, -2.046386574322e-11, -6.111016902953e-13, 1.850500482765e-11, -1.245653245595e-12
188, 7.265721539151e-10, -5.402099431725e-11, 2.499999982185e+01, -5.716179416147e-01, 1.526411919829e-01, 2.723324309469e-01, 4.054377210338e-01, -3.213101884041e-10, 1.526411919829e-10, 1.006649978766e-10, 1.672176429201e-10
189, 4.918353856438e-10, 5.913129303325e-12, 2.500000251638e+01, -1.655237045290e-01, 1.266346008225e-02, -1.453623961288e-01, -2.398447660396e-01, 4.550916036646e-11, 1.266346008225e-11, 5.558981456656e-11, 8.348629611158e-12
190, 5.327399210932e-10, -7.311309588908e-12, 2.500000178954e+01, -1.985151614284e-01, -2.760437646370e-02, -8.612163188214e-02, -1.463712097670e-01, -3.914995751171e-14, -2.760437646370e-11, 5.615761481560e-11, 2.603282587318e-11
191, 2.979193326372e-10, -1.032471949483e-12, 2.500000002754e+01, -5.043860859580e-02, 1.555857189563e-03, 3.018582579477e-02, -7.209555496095e-03, -2.155136432863e-11, 1.555857189563e-12, 1.876085286666e-11, 6.316222122501e-14
192, 1.662952511954e-10, 3.659570847343e-15, 2.499999999998e+01, -2.619495084040e-02, -2.004239103394e-05, 9.657808468272e-03, -4.146240573502e-03, -1.102811476833e-11, -2.004239103394e-14, 6.898264886009e-12, -3.759634877895e-15
193, 1.680245281737e-10, 4.446700803027e-14, 2.500000000016e+01, -2.630235863727e-02, -5.947366299753e-05, 9.770859171881e-03, -4.167098515895e-03, -1.107586404799e-11, -5.947366299753e-14, 6.960744856587e-12, -8.233987300539e-15
194, 1.073057983439e-10, 1.401659641065e-14, 2.500000000000e+01, -1.944420374088e-02, -7.472897416665e-06, 2.916858604602e-03, -4.141120975949e-03, -7.655470703471e-12, -7.472897416665e-15, 3.525060469269e-12, -3.929321007310e-15
195, 2.639790824914e-11, -2.012918622983e-14, 2.500000000000e+01, -1.357581489470e-02, 3.688089460571e-07, -2.970102666018e-03, -4.136709673067e-03, -4.719718970360e-12, 3.688089460571e-16, 5.831371439831e-13, -1.663595415105e-16
196, 1.453307764627e-10, 3.333580646204e-15, 2.499999999996e+01, -2.341725557917e-02, -1.954208688192e-05, 6.854908275721e-03, -4.121299756787e-03, -9.642316790100e-12, -1.954208688192e-14, 5.493765137346e-12, 5.661121092064e-15
197, 6.256007786779e-11, -7.900219047618e-16, 2.500000000000e+01, -1.572842585298e-02, -7.865792963348e-07, -8.134774991656e-04, -4.140193140567e-03, -5.795995284944e-12, -7.865792963348e-16, 1.661478891962e-12, -1.878928739124e-15
198, 1.170462145045e-10, -2.414730499357e-14, 2.499999999996e+01, -2.031223522585e-02, 1.430924801228e-05, 3.764981027909e-03, -4.133084424563e-03, -8.089923754380e-12, 1.430924801228e-14, 3.948684372500e-12, -3.483537360479e-16
199, 1.472123133181e-10, 3.185373606686e-14, 2.500000000004e+01, -2.381205366546e-02, -1.772176465039e-05, 7.202350420390e-03, -4.129253507671e-03, -9.829478522604e-12, -1.772176465039e-14, 5.677723520322e-12, 1.192155629140e-14
200, 8.693215441443e-10, 1.080788192182e-12, 2.499999707310e+01, -4.263155695105e-01, 5.051664991366e-02, 6.806900183891e-01, 5.354978491502e-01, -4.196107732315e-10, 5.051664991366e-11, 1.338920207183e-10, 6.129593609880e-11
201, 3.903806693344e-10, 2.941748406909e-12, 2.499999975767e+01, -7.338083566126e-02, -3.518167112451e-03, 8.688567689993e-02, 2.725961232139e-02, -4.958336519687e-11, -3.518167112451e-12, 3.054989108372e-11, 7.368587944534e-13
202, 1.497613391027e-10, -5.035410731076e-14, 2.499999999973e+01, -2.408688905104e-02, 2.681817677140e-05, 7.563600868394e-03, -4.104911106264e-03, -9.991089150297e-12, 2.681817677140e-14, 5.834155809420e-12, -1.001779089174e-16
203, 6.717570751368e-11, 1.521994074302e-14, 2.500000000001e+01, -1.603431921327e-02, -3.131617920135e-06, -5.066741975202e-04, -4.136995092578e-03, -5.949141973085e-12, -3.131617920135e-15, 1.814680534791e-12, -4.799127382335e-16
204, 2.939235715166e-10, 9.914325511712e-13, 2.500000002298e+01, -4.758526282191e-02, -2.596542460441e-03, 3.055696926088e-02, -7.332799720664e-03, -2.074127292272e-11, -2.596542460441e-12, 1.832984311867e-11, -6.150413720997e-13
205, 3.738905421497e-10, 1.528640311329e-12, 2.500000001203e+01, -7.378748548371e-02, -4.378951616608e-03, 5.206063619660e-02, -3.797408829074e-03, -3.409567732913e-11, -4.378951616608e-12, 2.882838351102e-11, 8.993609981862e-13
206, 3.915397609331e-10, -3.366462011285e-12, 2.499999983643e+01, -7.736428809453e-02, 6.552334273699e-03, 7.728704358473e-02, 1.875051656770e-02, -4.623956176738e-11, 6.552334273699e-12, 3.108610407225e-11, 1.817840563738e-12
207, 4.001433008789e-10, 1.396006749728e-12, 2.499999972638e+01, -5.734835440816e-02, 6.254500390471e-03, 9.301399245132e-02, 1.222068411208e-02, -4.293973812628e-11, 6.254500390471e-12, 3.224143530346e-11, -8.155218866160e-12
208, 5.877735752455e-11, -2.198929713867e-15, 2.500000000000e+01, -1.552526722764e-02, 3.365046952990e-06, -1.017219392403e-03, -4.137187329308e-03, -5.694600795664e-12, 3.365046952990e-15, 1.559423121956e-12, -5.608464961345e-16
209, 5.875564473731e-11, 1.474509543451e-15, 2.500000000000e+01, -1.543814104767e-02, -1.380033226204e-06, -1.100072417469e-03, -4.136749206652e-03, -5.651573492821e-12, -1.380033226204e-15, 1.517460822278e-12, -8.775723139056e-16
210, 1.818513983153e-11, -9.414226596457e-15, 2.500000000000e+01, -1.323175084995e-02, 3.723151706675e-07, -3.308907094242e-03, -4.138896429684e-03, -4.547976597712e-12, 3.723151706675e-16, 4.134452801426e-13, -1.549387578317e-15
211, 3.815408695532e-10, 5.482424582780e-12, 2.499999987838e+01, -5.989379469134e-02, -9.784486213478e-03, 7.174324192535e-02, 1.211404405759e-03, -3.610832196221e-11, -9.784486213478e-12, 2.971019634613e-11, -5.555722413664e-12
212, 8.391231131778e-10, -2.554054473299e-11, 2.499999712725e+01, -3.630936820936e-01, 6.766220984499e-02, 6.736120674484e-01, 5.067724883178e-01, -3.914893666768e-10, 6.766220984499e-11, 1.268635080942e-10, 4.344371852886e-11
213, 9.841896288604e-11, 2.049830792616e-14, 2.500000000000e+01, -1.850761034681e-02, -1.066798943027e-05, 1.969021608705e-03, -4.135519004771e-03, -7.186448265364e-12, -1.066798943027e-14, 3.051867712396e-12, -4.025943422761e-16
214, 6.553905073049e-11, -1.329447209598e-14, 2.500000000000e+01, -1.593871628071e-02, 2.793397472563e-06, -6.117399754966e-04, -4.136042568183e-03, -5.900654146534e-12, 2.793397472563e-15, 1.762834006073e-12, 6.827097295601e-16
215, 9.157998051640e-11, -2.706322570864e-14, 2.500000000000e+01, -1.801935801773e-02, 4.315483274280e-06, 1.475607689669e-03, -4.133631291424e-03, -6.941782804447e-12, 4.315483274280e-15, 2.805700049250e-12, 1.080558703882e-15
216, 4.077276230411e-10, -2.708559117723e-12, 2.499999985521e+01, -8.839629033317e-02, 4.262241549976e-03, 8.058008672832e-02, 2.419160946499e-02, -5.139485277043e-11, 4.262241549976e-12, 3.309333576031e-11, 4.899097128649e-12
217, 2.730694808438e-10, 1.873289267185e-14, 2.499999997899e+01, -4.253139712859e-02, -1.149200001299e-04, 3.041825201869e-02, -1.926183239235e-03, -2.073883518076e-11, -1.149200001299e-13, 1.573598939288e-11, -4.362282360807e-13
218, 9.775697155107e-11, -1.674565200503e-14, 2.499999999998e+01, -1.855393959490e-02, 3.410239270718e-06, 2.000685313990e-03, -4.134057761149e-03, -7.209203775549e-12, 3.410239270718e-15, 3.068108678897e-12, 7.371413270977e-16
219, 9.195701504297e-10, 1.873950282719e-11, 2.499999623621e+01, -4.408861411324e-01, -7.315191134770e-03, 8.341740872403e-01, 6.519351053545e-01, -4.872538591216e-10, -7.315191134770e-12, 1.502762550647e-10, 5.915676412186e-11
220, 1.043011708461e-10, 5.150862485877e-15, 2.499999999999e+01, -1.914857759861e-02, -6.976049050874e-06, 2.605508026257e-03, -4.137056003185e-03, -7.506533571908e-12, -6.976049050874e-15, 3.370509240525e-12, -7.727741960184e-16
221, 2.395775329926e-11, 7.189268469196e-15, 2.500000000000e+01, -1.348987130759e-02, -1.173712562782e-06, -3.056623887617e-03, -4.135333617133e-03, -4.676708801067e-12, -1.173712562782e-15, 5.399149089182e-13, 5.600441605455e-16
222, 1.044940859518e-10, -4.321883654949e-16, 2.499999999996e+01, -1.917994900584e-02, 2.110349256185e-06, 2.631602587426e-03, -4.124474207791e-03, -7.524060149801e-12, 2.110349256185e-15, 3.381715646832e-12, 3.677249223997e-15
223, 1.060642791216e-10, -1.062055868133e-14, 2.500000000000e+01, -1.933882507891e-02, -1.920129049256e-06, 2.792563326788e-03, -4.134124003385e-03, -7.601190917438e-12, -1.920129049256e-15, 3.464503285412e-12, 1.159620325337e-15
224, 2.280989109230e-10, -1.261656572322e-13, 2.499999999144e+01, -3.527605135778e-02, 2.666928688086e-04, 2.031198138352e-02, -3.379969017466e-03, -1.612204928393e-11, 2.666928688086e-13, 1.167196708672e-11, -1.740081137774e-13
225, 3.749058981745e-10, -4.320640084222e-12, 2.499999999367e+01, -7.114047962555e-02, 8.074110361475e-03, 5.244530710227e-02, -3.818036392384e-03, -3.310425046279e-11, 8.074110361475e-12, 2.868864290112e-11, 5.569711537909e-13
226, 3.851179443501e-10, -2.501988858094e-12, 2.499999974115e+01, -6.670524314389e-02, 3.029009499152e-03, 8.569666902748e-02, 2.116569363971e-02, -4.638620882056e-11, 3.029009499152e-12, 2.981474726513e-11, -2.450740428755e-12
227, 7.045039484641e-10, 2.527528022102e-11, 2.499999976453e+01, -3.732825102256e-01, -5.278002694691e-02, 2.806701569263e-01, 2.693688804356e-01, -2.357456575660e-10, -5.278002694691e-11, 9.123067600993e-11, 8.558003776455e-11
228, 8.665165601973e-10, -1.030650794713e-11, 2.499999676031e+01, -3.491980369155e-01, 5.707635238022e-02, 7.330735095120e-01, 5.253510121544e-01, -4.081265652441e-10, 5.707635238022e-11, 1.330092079696e-10, 2.914795929079e-11
229, 8.190221325762e-10, 2.879548911171e-12, 2.499999767661e+01, -3.614891182187e-01, 8.392001018018e-02, 5.769367928322e-01, 4.421944002651e-01, -3.508162612362e-10, 8.392001018018e-11, 1.183966942893e-10, 5.102549800574e-11
230, 9.075026514438e-10, 6.972971161895e-12, 2.499999568265e+01, -3.859639016478e-01, 2.721110228626e-02, 8.970548572340e-01, 6.845839356282e-01, -4.937461145024e-10, 2.721110228626e-11, 1.477632649385e-10, 4.152780413558e-11
231, 1.027044841064e-10, 2.863505121032e-14, 2.500000000007e+01, -1.892976099457e-02, -1.054119615729e-05, 2.374874404865e-03, -4.146327109581e-03, -7.391902556378e-12, -1.054119615729e-14, 3.260415143341e-12, -1.856138819445e-16
232, 8.435235409999e-10, 2.662013882352e-11, 2.499999701540e+01, -3.917092704849e-01, -3.483616545043e-02, 6.675853716780e-01, 5.137204822905e-01, -4.015011581177e-10, -3.483616545043e-11, 1.281461629637e-10, 5.121371826998e-11
233, 2.185526645306e-10, -5.209839939291e-14, 2.499999999796e+01, -3.402797443894e-02, 2.332478895513e-04, 1.777310371514e-02, -3.920541947582e-03, -1.508189016404e-11, 2.332478895513e-13, 1.081864891300e-11, -2.817391835925e-14
234, 2.110183473150e-11, -1.754256741758e-15, 2.500000000000e+01, -1.334951532736e-02, -4.864732210187e-07, -3.197718803708e-03, -4.134388627014e-03, -4.606510062346e-12, -4.864732210187e-16, 4.693881994784e-13, 1.053287825479e-15
235, 8.657302371183e-10, 1.851332542103e-11, 2.499999639263e+01, -3.193599000192e-01, -9.689832517866e-02, 7.036864571998e-01, 4.788156814850e-01, -3.755274325164e-10, -9.689832517866e-11, 1.359957460932e-10, 2.356035823577e-11
236, 3.549800912227e-10, -1.059732591816e-12, 2.499999986292e+01, -6.068134483672e-02, 2.833158201519e-03, 6.319501292581e-02, 9.655897478243e-03, -3.616947616901e-11, 2.833158201519e-12, 2.576870271226e-11, -1.000855011526e-12
237, 1.932023150024e-10, -1.099336311691e-13, 2.499999999986e+01, -3.036497078837e-02, 1.524483284194e-04, 1.394031408679e-02, -4.129631765833e-03, -1.313868196452e-11, 1.524483284194e-13, 9.013960473064e-12, -2.101245324954e-14
238, 3.737290507389e-10, 2.697318273668e-12, 2.499999987856e+01, -6.614703747534e-02, -7.770548996270e-03, 6.951876539008e-02, 1.045945192688e-02, -3.929352150964e-11, -7.770548996270e-12, 2.853937992307e-11, -9.902768085272e-13
239, 1.934260324188e-11, 4.203916382766e-16, 2.500000000000e+01, -1.325413243354e-02, 1.031935360709e-06, -3.289970761889e-03, -4.135013848955e-03, -4.559134347129e-12, 1.031935360709e-15, 4.229464886968e-13, 4.249451635963e-16
240, 4.572659276073e-10, -5.092868072316e-12, 2.499999948684e+01, -7.717811736715e-02, 4.868470309080e-03, 1.435213432079e-01, 5.119117899143e-02, -6.932768792537e-11, 4.868470309080e-12, 4.102204236217e-11, -5.143039746078e-12
241, 2.585572538815e-10, -3.594538385941e-13, 2.499999998399e+01, -4.023386290271e-02, 6.268729078594e-04, 2.667343235741e-02, -1.679437360319e-03, -1.936146821907e-11, 6.268729078594e-13, 1.409217941099e-11, -8.425544787199e-14
242, 1.469374320665e-10, -3.058303270064e-14, 2.500000000002e+01, -2.385743305734e-02, 2.165965839628e-05, 7.297155632840e-03, -4.146720214109e-03, -9.856219801639e-12, 2.165965839628e-14, 5.721074543452e-12, -8.633800224059e-16
243, 4.082644456752e-10, 4.308084375799e-12, 2.499999977356e+01, -6.740298839335e-02, -8.263642193729e-03, 9.213292915024e-02, 1.252687346156e-02, -4.613501528385e-11, -8.263642193729e-12, 3.363294348794e-11, -6.170084356398e-12
244, 3.941789987703e-10, 4.080675844601e-12, 2.499999990321e+01, -7.033534356135e-02, -1.005374457842e-02, 7.082249429756e-02, 4.569174338491e-03, -3.929688849062e-11, -1.005374457842e-11, 3.128203043884e-11, -1.844629540697e-12
245, 2.566051023912e-10, 1.364137426848e-14, 2.499999998650e+01, -4.143917033146e-02, 1.066923952674e-05, 2.612945463109e-02, -2.354570559607e-03, -1.940758456561e-11, 1.066923952674e-14, 1.437672791567e-11, 1.347153203189e-13
246, 2.432667477670e-10, -1.850487596019e-13, 2.499999999259e+01, -3.854902014187e-02, 2.276319747992e-04, 2.272805724656e-02, -2.786574151357e-03, -1.768009099351e-11, 2.276319747992e-13, 1.295844770071e-11, 2.011320017473e-13
247, 2.435948319334e-10, -3.940513695856e-13, 2.499999999869e+01, -3.831062692010e-02, 5.340719385306e-04, 2.194521887965e-02, -3.943264382305e-03, -1.715984127533e-11, 5.340719385306e-13, 1.296808162455e-11, 2.383999357130e-14
248, 1.947969362792e-11, 6.138949023695e-15, 2.500000000000e+01, -1.326185540327e-02, -1.413710337721e-06, -3.281448263525e-03, -4.135928528098e-03, -4.562994815214e-12, -1.413710337721e-15, 4.272087546612e-13, -3.137762516823e-17
249, 4.110620494689e-10, 9.994027696952e-13, 2.499999974836e+01, -7.600085372383e-02, -7.963160528291e-05, 1.028192686570e-01, 3.549237881728e-02, -5.587018090810e-11, -7.963160528291e-14, 3.353988028232e-11, -1.235646375372e-13
250, 2.582763262226e-10, -6.768650924780e-14, 2.500000000438e+01, -4.117216301737e-02, -1.467957126399e-04, 2.398394074902e-02, -4.651926728816e-03, -1.823091465710e-11, -1.467957126399e-13, 1.434713722610e-11, 2.920348717909e-14
251, 8.890584426752e-10, 1.609650173950e-11, 2.499999619200e+01, -3.375492881098e-01, -7.336419213245e-02, 7.792869899467e-01, 5.501303803276e-01, -4.200447819629e-10, -7.336419213245e-11, 1.383733570654e-10, 2.379505225581e-11
252, 1.240343545725e-10, -1.210475144565e-14, 2.500000000000e+01, -2.092668601429e-02, 8.426393380957e-06, 4.400171247368e-03, -4.137650290766e-03, -8.396787678497e-12, 8.426393380957e-15, 4.266640952332e-12, -2.269816735108e-15
253, 9.900192550402e-10, 2.290355139824e-11, 2.499999514555e+01, -6.741362990157e-02, 9.660503426295e-02, 1.028994531222e+00, 4.686911308166e-01, -3.806209753593e-10, 9.660503426295e-11, 1.675831052026e-10, -1.125685950002e-10
254, 1.149996685782e-10, -1.169176883387e-14, 2.500000000003e+01, -2.022342232704e-02, 9.316803724415e-06, 3.688277121017e-03, -4.144402566996e-03, -8.042166035257e-12, 9.316803724415e-15, 3.913683688773e-12, -2.656155233591e-15
255, 1.149443810525e-10, -9.014424325546e-15, 2.500000000000e+01, -2.005676772545e-02, 1.674007598853e-06, 3.530124825395e-03, -4.133742590051e-03, -7.962385342138e-12, 1.674007598853e-15, 3.831060933283e-12, -8.727744402448e-16
256, 1.892287646340e-10, -1.750109776184e-14, 2.500000000002e+01, -2.950253675641e-02, -5.697674297657e-05, 1.293355192059e-02, -4.164326673796e-03, -1.267363496203e-11, -5.697674297657e-14, 8.544409376467e-12, -4.529920725492e-15
257, 8.744544414293e-10, 2.811647614412e-11, 2.499999645406e+01, -3.267814807199e-01, -9.585893658895e-02, 7.012805343329e-01, 4.802867867205e-01, -3.756153726102e-10, -9.585893658895e-11, 1.384156349163e-10, 2.791876111007e-11
258, 8.805613666564e-10, -2.823525218728e-11, 2.499999610974e+01, -3.352894498859e-01, 1.024285608639e-01, 8.449201405577e-01, 6.143798732142e-01, -4.502242940000e-10, 1.024285608639e-10, 1.398805012218e-10, 2.461036755009e-11
259, 1.759807304977e-10, 2.117630912836e-14, 2.500000000088e+01, -2.677263370096e-02, 2.593274281177e-05, 1.022660026960e-02, -4.432474966647e-03, -1.123899635564e-11, 2.593274281177e-14, 7.260620629641e-12, -6.891698848357e-14
260, 3.953702867834e-10, 3.846799604280e-12, 2.499999986933e+01, -5.965098320982e-02, -9.442025184575e-03, 7.772674078578e-02, 1.544258119325e-03, -3.708244697548e-11, -9.442025184575e-12, 3.160641502231e-11, -6.484826310912e-12
261, 4.164090480349e-10, -1.527622163511e-12, 2.499999972848e+01, -7.744137844805e-02, 4.752341788582e-04, 1.058949628991e-01, 3.743691126035e-02, -5.766737528438e-11, 4.752341788582e-13, 3.400079538920e-11, -2.282304301796e-13
262, 8.984793864702e-11, 7.572699933123e-15, 2.500000000000e+01, -1.795410720735e-02, -3.303500184241e-07, 1.414081978021e-03, -4.140559223958e-03, -6.908941535816e-12, -3.303500184241e-16, 2.775153056868e-12, -2.167544122109e-15
263, 2.069012928877e-11, -1.516916710919e-14, 2.500000000000e+01, -1.329306763194e-02, 1.301199631559e-06, -3.257358189160e-03, -4.135324000461e-03, -4.577907856516e-12, 1.301199631559e-15, 4.399468648722e-13, 9.639592217076e-16
264, 2.020381622148e-10, 3.360063867563e-14, 2.500000000139e+01, -3.129731647918e-02, -2.006357140669e-05, 1.455629442977e-02, -4.315726783535e-03, -1.349561988138e-11, -2.006357140669e-14, 9.431185573099e-12, -4.825033552908e-15
265, 4.719124245407e-11, 7.738799387561e-15, 2.500000000000e+01, -1.463724685697e-02, -1.248350280470e-06, -1.902813709609e-03, -4.138134467476e-03, -5.250893375304e-12, -1.248350280470e-15, 1.116323198376e-12, -1.337180557678e-15
266, 5.808426165745e-11, -1.830554799293e-14, 2.500000000000e+01, -1.543947621447e-02, 2.334784043374e-06, -1.100444756795e-03, -4.138032912134e-03, -5.651973752293e-12, 2.334784043374e-15, 1.517541976545e-12, -1.252101125100e-15
267, 9.507904297014e-10, 2.113227974031e-11, 2.499999553249e+01, -3.334472599453e-01, -3.423238980643e-02, 8.212698198527e-01, 5.398850748953e-01, -4.201335338773e-10, -3.423238980643e-11, 1.572250060217e-10, 1.653263354299e-11
268, 1.855532958437e-10, -9.601307327460e-14, 2.500000000040e+01, -2.877641209114e-02, 6.061770798652e-05, 1.214010832181e-02, -4.154688550506e-03, -1.229281840060e-11, 6.061770798652e-14, 8.165441805877e-12, 1.804336971944e-14
269, 1.852292615555e-10, -6.924183946329e-14, 2.500000000032e+01, -2.834096772341e-02, 1.418516265371e-05, 1.197085426549e-02, -4.304461152821e-03, -1.208966711185e-11, 1.418516265371e-14, 8.066243882606e-12, -7.141382654950e-14
270, 4.493246488939e-11, -1.493384666145e-14, 2.500000000000e+01, -1.465361778249e-02, 6.001843508734e-07, -1.894117835590e-03, -4.134787429031e-03, -5.258602747536e-12, 6.001843508734e-16, 1.121147225915e-12, 8.124291948536e-16
271, 2.365332626316e-10, 1.337968947164e-13, 2.499999999453e+01, -3.712830502959e-02, -4.306421082584e-04, 2.146278581760e-02, -3.578705634515e-03, -1.685599189900e-11, -4.306421082584e-13, 1.243955352459e-11, -8.119220146507e-14
272, 3.712521042358e-10, -3.693212938998e-12, 2.499999992534e+01, -7.305297817543e-02, 7.950303868064e-03, 6.656992817754e-02, 1.625765678629e-02, -4.194277206650e-11, 7.950303868064e-12, 2.786868110998e-11, 2.712545414358e-12
273, 2.425706269118e-10, -1.435387251105e-13, 2.499999999260e+01, -3.833190696420e-02, 3.233094647252e-04, 2.281454817619e-02, -3.378539366877e-03, -1.752819006042e-11, 3.233094647252e-13, 1.304503750977e-11, -5.150626176165e-14
274, 2.132278458378e-10, -9.738411589441e-15, 2.499999999477e+01, -3.272965964125e-02, -1.668419149823e-05, 1.707326265344e-02, -3.557353472131e-03, -1.465777436249e-11, -1.668419149823e-14, 1.024368678486e-11, -7.162127792554e-14
275, 2.380964457904e-10, -2.166784707964e-14, 2.499999999057e+01, -3.676057929788e-02, -1.253525373411e-04, 2.173300364066e-02, -2.614036987352e-03, -1.705610498719e-11, -1.253525373411e-13, 1.219068648208e-11, 1.716616807452e-14
276, 9.329620859513e-10, 1.813639673220e-13, 2.499999610797e+01, -2.997314098742e-01, 2.313707515321e-02, 8.443285570052e-01, 5.299213190580e-01, -4.210852456687e-10, 2.313707515321e-11, 1.509447377710e-10, -6.258881202624e-12
277, 3.697714669648e-10, -1.451511825403e-12, 2.499999998756e+01, -7.000576423385e-02, -1.899254101423e-04, 5.366117193846e-02, -2.201952604775e-03, -3.319835731753e-11, -1.899254101423e-13, 2.863511076863e-11, 7.035484970085e-13
278, 1.586758073423e-10, -1.008500607027e-14, 2.500000000061e+01, -2.504420037087e-02, 1.021344136429e-05, 8.467543715833e-03, -4.232538289062e-03, -1.041904053820e-11, 1.021344136429e-14, 6.336831505149e-12, -1.320949729874e-14
279, 1.218727879680e-10, 2.785325724957e-14, 2.500000000014e+01, -2.106403057374e-02, 1.338461912806e-06, 4.455393463168e-03, -4.150788710190e-03, -8.450165089772e-12, 1.338461912806e-15, 4.309546928679e-12, 6.455842000017e-15
280, 8.798731205855e-11, -2.316967396592e-14, 2.500000000001e+01, -1.764335035594e-02, 2.478331250944e-06, 1.104868141628e-03, -4.137767807498e-03, -6.753608950066e-12, 2.478331250944e-15, 2.620500298718e-12, -8.176758456447e-16
281, 1.126857609567e-10, -2.175151131709e-14, 2.499999999998e+01, -1.986120382553e-02, 4.361392752498e-06, 3.324190234751e-03, -4.136976389635e-03, -7.864374652986e-12, 4.361392752498e-15, 3.728322377155e-12, -2.260935038074e-15
282, 1.733914149190e-10, -2.772136706429e-14, 2.500000000048e+01, -2.715475798823e-02, 7.266199375354e-06, 1.052559055807e-02, -4.211333531045e-03, -1.147266488468e-11, 7.266199375354e-15, 7.367509388472e-12, -9.526560874207e-16
283, 1.029934806330e-10, -1.905237186813e-14, 2.500000000001e+01, -1.890515642921e-02, 3.281815415679e-06, 2.361746751216e-03, -4.139053088695e-03, -7.384040129285e-12, 3.281815415679e-15, 3.249411460928e-12, -9.884590272029e-16
284, 3.157846723909e-10, 1.432958890881e-12, 2.500000007380e+01, -5.917425901877e-02, -7.379197582041e-04, 2.713404819356e-02, -9.497598038323e-03, -2.253587553135e-11, -7.379197582041e-13, 2.061827807481e-11, 2.302454958870e-12
285, 5.305165290427e-11, 4.139939088395e-15, 2.500000000000e+01, -1.515603618693e-02, -2.147383418558e-06, -1.390469503744e-03, -4.134488028808e-03, -5.509936271923e-12, -2.147383418558e-15, 1.372847069671e-12, 8.378071388182e-16
286, 1.174051056497e-10, 3.614024688596e-15, 2.499999999999e+01, -2.038760577997e-02, -3.061177500625e-06, 3.850572016526e-03, -4.135917339525e-03, -8.126995858600e-12, -3.061177500625e-15, 3.992093039650e-12, -1.151638376003e-15
287, 5.922148719275e-11, -7.778740758392e-15, 2.500000000000e+01, -1.562229113918e-02, 3.370843460085e-06, -9.237888434204e-04, -4.133210499909e-03, -5.743288318131e-12, 3.370843460085e-15, 1.605962829750e-12, 1.252001506043e-15
288, 1.175152621758e-10, -2.936892418784e-14, 2.500000000005e+01, -2.041452641636e-02, 2.427113021013e-05, 3.848268104777e-03, -4.138020039893e-03, -8.134549564156e-12, 2.427113021013e-14, 3.996847696411e-12, 3.703624076232e-15
289, 1.762365134276e-10, 4.251611185647e-14, 2.499999999947e+01, -2.788020659938e-02, -1.310389927336e-05, 1.139948329594e-02, -4.090228513266e-03, -1.190114491083e-11, -1.310389927336e-14, 7.738700036833e-12, -6.155867771490e-15
290, 5.919206263056e-11, 1.014694406016e-14, 2.500000000000e+01, -1.542044651688e-02, -3.088766140390e-06, -1.122497290829e-03, -4.135259651401e-03, -5.642366574782e-12, -3.088766140390e-15, 1.506608038244e-12, 2.268579582105e-16
291, 2.500885960556e-10, -2.041239264904e-13, 2.499999999354e+01, -3.961508898647e-02, 4.398949389815e-04, 2.446220321335e-02, -3.622421784110e-03, -1.820086422503e-11, 4.398949389815e-13, 1.383778187488e-11, -2.045306238518e-13
292, 2.311294310443e-10, -1.381585859542e-13, 2.499999999099e+01, -3.596817936771e-02, -1.371648344726e-05, 2.080714890817e-02, -3.017148743647e-03, -1.653671081186e-11, -1.371648344726e-14, 1.185095332608e-11, -6.119549982973e-14
293, 9.414333506513e-10, 2.132705101520e-11, 2.499999579429e+01, -3.116935812165e-01, -8.279116402858e-02, 7.911596561684e-01, 5.069202882279e-01, -3.956612688431e-10, -8.279116402858e-11, 1.557653498493e-10, 1.364566587907e-11
294, 1.177832109369e-10, -1.880337642221e-14, 2.500000000000e+01, -2.065181108561e-02, 4.287531832919e-06, 4.107792543397e-03, -4.143520485668e-03, -8.257432540298e-12, 4.287531832919e-15, 4.122369274206e-12, -3.287240326480e-15
295, 1.129865725562e-10, -2.004160328781e-14, 2.500000000002e+01, -1.999151954385e-02, 7.609403369777e-06, 3.441627596356e-03, -4.136564508963e-03, -7.926378033847e-12, 7.609403369777e-15, 3.790195536255e-12, 1.099483595763e-15
296, 2.361118545879e-10, 1.671422605449e-13, 2.499999999435e+01, -3.666495601511e-02, 1.608223274138e-04, 2.097403709471e-02, -3.277558119739e-03, -1.668683280471e-11, 1.608223274138e-13, 1.213266375020e-11, 6.866142974312e-15
297, 1.770405193343e-10, -2.974454195488e-14, 2.499999999995e+01, -2.750905775777e-02, -2.660682223570e-05, 1.098541144669e-02, -4.138361910411e-03, -1.168902031010e-11, -2.660682223570e-14, 7.558214292128e-12, -3.672386422230e-15
298, 1.043362183464e-09, -2.400876894707e-11, 2.499999462759e+01, -1.824698733141e-01, -1.044057127485e-02, 1.243565734142e+00, 6.885130042774e-01, -5.255601543310e-10, -1.044057127485e-11, 1.874576493969e-10, -9.006871553521e-11
299, 9.420719588510e-10, 1.766684328959e-11, 2.499999532459e+01, -3.976944563571e-01, 5.116725614799e-02, 9.706844786046e-01, 7.405767519254e-01, -5.276885440372e-10, 5.116725614799e-11, 1.565009234436e-10, 4.144706010401e-11
300, 8.735477698988e-11, -2.170115152573e-14, 2.500000000000e+01, -1.748119784874e-02, 1.122003538691e-06, 9.316834977970e-04, -4.138107405798e-03, -6.671739838363e-12, 1.122003538691e-15, 2.534700834904e-12, -1.946168936299e-16
301, 2.544068818755e-10, -4.418510549362e-13, 2.499999999290e+01, -4.019257002541e-02, 8.196489147683e-04, 2.521126993087e-02, -3.444046959901e-03, -1.855210558908e-11, 8.196489147683e-13, 1.414981438907e-11, -1.778440563194e-13
302, 2.876946511119e-10, -4.498511402429e-14, 2.499999996751e+01, -4.544727616486e-02, 2.355694128394e-05, 3.505365385895e-02, -1.265001739318e-03, -2.283237331897e-11, 2.355694128394e-14, 1.741809169293e-11, -7.412361061972e-13
303, 2.049325051475e-11, 3.695586293597e-15, 2.500000000000e+01, -1.328530395677e-02, -1.315232373221e-06, -3.254321947518e-03, -4.138019215348e-03, -4.574858536674e-12, -1.315232373221e-15, 4.406324679520e-13, -1.216165962970e-15
304, 5.035376299600e-11, -2.113485556524e-14, 2.500000000000e+01, -1.494701458379e-02, 2.159519805370e-06, -1.599536734213e-03, -4.136497494505e-03, -5.405217771396e-12, 2.159519805370e-15, 1.268521153395e-12, 4.077324888010e-17
305, 1.699867068065e-11, -5.506147567186e-15, 2.500000000000e+01, -1.318365586179e-02, -9.083606693617e-07, -3.370156469271e-03, -4.134878108095e-03, -4.523063500898e-12, -9.083606693617e-16, 3.836861953629e-13, 1.325375950924e-15
306, 9.534137824274e-10, 6.383885485933e-12, 2.499999559620e+01, -3.167379021521e-01, -9.410291564548e-02, 8.671257995409e-01, 5.630167666370e-01, -4.290836725104e-10, -9.410291564548e-11, 1.628481783362e-10, 1.079366188418e-11
307, 2.872202079212e-10, -5.677041343421e-13, 2.500000002414e+01, -5.000804545160e-02, 9.620998863404e-04, 2.728161161287e-02, -5.563563902393e-03, -2.116122008603e-11, 9.620998863404e-13, 1.748360844620e-11, 1.061020688574e-12
308, 4.267432537548e-11, 6.656054596900e-15, 2.500000000000e+01, -1.447832924914e-02, -9.361364914016e-07, -2.066775313888e-03, -4.135751868952e-03, -5.171110913162e-12, -9.361364914016e-16, 1.034666054463e-12, 1.777769312658e-16
309, 4.620837285095e-10, 5.174665079961e-12, 2.500000005322e+01, -3.669129668648e-02, -3.161483751570e-02, 9.796936507660e-02, -3.697594624426e-02, -2.470893650986e-11, -3.161483751570e-11, 4.262139437168e-11, -2.485126128875e-11
310, 4.049191954769e-10, -5.571837384458e-12, 2.499999986565e+01, -6.792027696864e-02, 1.350428597892e-02, 8.604776456440e-02, 1.106428613890e-02, -4.397185606910e-11, 1.350428597892e-11, 3.301216469741e-11, -4.479574515332e-12
311, 4.278394731265e-11, -1.801007158667e-16, 2.500000000000e+01, -1.456038216960e-02, 1.067534695337e-06, -1.989825417429e-03, -4.135050605238e-03, -5.211663516454e-12, 1.067534695337e-15, 1.073614859632e-12, 1.002265727149e-15
312, 4.392500125385e-10, 1.375617456486e-11, 2.500000008145e+01, -1.213770626111e-02, -3.937658591940e-02, 6.489714987028e-02, -7.606874362492e-02, -3.169665549620e-13, -3.937658591940e-11, 3.820046151073e-11, -3.228248523686e-11
313, 9.130606501025e-10, -1.039152699079e-12, 2.499999575155e+01, -3.672493426986e-01, 5.133176064521e-02, 9.146188176521e-01, 6.795803538687e-01, -4.899426938317e-10, 5.133176064521e-11, 1.509913863437e-10, 3.347215445194e-11
314, 1.781045943516e-11, -1.332795529091e-15, 2.500000000000e+01, -1.321412725497e-02, 3.983503466487e-08, -3.329425663675e-03, -4.136927811546e-03, -4.538955661634e-12, 3.983503466487e-17, 4.033951340131e-13, -3.559399226985e-16
315, 1.775776542598e-11, 3.306577737849e-15, 2.500000000000e+01, -1.315504415921e-02, -5.185112204767e-08, -3.386483644760e-03, -4.137817602783e-03, -4.509511767245e-12, -5.185112204767e-17, 3.747684899806e-13, -8.984890307136e-16
316, 7.475608222021e-11, -1.361641130127e-14, 2.500000000000e+01, -1.661919388652e-02, 2.856447993213e-06, 7.769799442678e-05, -4.140736498322e-03, -6.241361021029e-12, 2.856447993213e-15, 2.107084919442e-12, -2.132326932093e-15
317, 3.650811017862e-10, 2.845298397516e-13, 2.500000009646e+01, -6.592801049744e-02, -3.002996488191e-03, 3.738323219084e-02, -1.593407527732e-02, -2.468443909782e-11, -3.002996488191e-12, 2.697118224632e-11, 3.125285122382e-13
318, 3.341955881378e-10, -7.839452210743e-13, 2.499999998875e+01, -6.487501145057e-02, 3.111786091349e-03, 4.328431350431e-02, 2.425286419414e-03, -3.099336378035e-11, 3.111786091349e-12, 2.308629869709e-11, 2.656785154640e-12
319, 1.919212718916e-10, 1.511991642651e-13, 2.500000000299e+01, -2.969479163846e-02, -1.206527129839e-04, 1.254162542672e-02, -4.421008456194e-03, -1.256994645750e-11, -1.206527129839e-13, 8.548262075095e-12, 6.694513363848e-14
320, 1.819257019267e-10, -2.220950770352e-14, 2.500000000188e+01, -2.805982090730e-02, 1.479278919986e-05, 1.117163013275e-02, -4.390229283221e-03, -1.182630523635e-11, 1.479278919986e-14, 7.789420283678e-12, 8.490575693371e-15
321, 1.022306814125e-09, -8.656033306743e-12, 2.499999398425e+01, -2.145516519443e-02, -3.050093498829e-02, 1.230501902742e+00, 5.685041523673e-01, -4.411439902718e-10, -3.050093498829e-11, 1.848345436965e-10, -1.461643314909e-10
322, 4.569298188869e-10, 1.306717154869e-11, 2.499999993566e+01, -2.106428467666e-03, -4.221369336252e-02, 9.823458475457e-02, -5.654508926160e-02, -9.840602476344e-12, -4.221369336252e-11, 4.032990413477e-11, -3.705993287331e-11
323, 5.488347243454e-11, 5.614776416990e-15, 2.500000000000e+01, -1.532658107669e-02, -4.229536052986e-07, -1.221977254277e-03, -4.134181139663e-03, -5.594887359544e-12, -4.229536052986e-16, 1.457414551660e-12, 1.312608967436e-15
324, 3.710738099829e-10, 2.331813039390e-12, 2.499999994685e+01, -8.207162613481e-02, -6.665195083495e-03, 5.997345109921e-02, 1.715402767544e-02, -4.302953662625e-11, -6.665195083495e-12, 2.799300199076e-11, 6.583290278872e-12
325, 1.712050232769e-11, -1.520788181532e-14, 2.500000000000e+01, -1.318432627627e-02, 6.799290268570e-07, -3.359037878255e-03, -4.138160936800e-03, -4.524004163062e-12, 6.799290268570e-16, 3.886400359435e-13, -9.214933289564e-16
326, 8.511813606503e-11, -4.191374607193e-15, 2.500000000000e+01, -1.743696093925e-02, -7.447171297137e-07, 8.956498874473e-04, -4.133711966064e-03, -6.650961754302e-12, -7.447171297137e-16, 2.515343659048e-12, 6.627322922613e-16
327, 8.515450798277e-11, -2.518445055576e-15, 2.500000000000e+01, -1.743810817151e-02, 6.534721777783e-06, 8.987367510621e-04, -4.136050410332e-03, -6.651630080145e-12, 6.534721777783e-15, 2.516792381141e-12, -6.011995557744e-16
328, 1.052904972855e-09, 1.054820483053e-11, 2.499999248256e+01, -1.168330426703e-01, 4.717134505687e-02, 1.338748125086e+00, 7.511739419312e-01, -5.255669487693e-10, 4.717134505687e-11, 2.022236351088e-10, -9.156345646861e-11
329, 1.013781149395e-09, -1.162515393170e-11, 2.499999422057e+01, -6.758007385616e-02, -3.377276964688e-03, 1.192477865594e+00, 5.664347548296e-01, -4.456592453965e-10, -3.377276964688e-12, 1.843697243283e-10, -1.286518310537e-10
330, 1.282891921589e-10, -7.769543738984e-15, 2.500000000005e+01, -2.176972531801e-02, -3.650143664610e-06, 5.196237489905e-03, -4.138795676391e-03, -8.811738540035e-12, -3.650143664610e-15, 4.671242863922e-12, 3.726280773884e-15
331, 1.322419855861e-10, 2.372589465782e-14, 2.500000000011e+01, -2.220897123040e-02, -1.101152283989e-05, 5.622499424867e-03, -4.145186129879e-03, -9.027164759586e-12, -1.101152283989e-14, 4.888570568047e-12, 4.727790673580e-15
332, 7.071343039017e-11, 1.440999109694e-14, 2.500000000000e+01, -1.623060304077e-02, -4.242388068264e-06, -3.177444812818e-04, -4.133950764282e-03, -6.047242417407e-12, -4.242388068264e-15, 1.909186862336e-12, 1.083720836439e-15
333, 1.350609971842e-10, 3.907639145976e-14, 2.500000000008e+01, -2.231802834989e-02, -6.196622846011e-06, 5.706982224232e-03, -4.127032697889e-03, -9.081714834799e-12, -6.196622846011e-15, 4.930790452260e-12, 1.378299119928e-14
334, 1.311635254320e-10, 1.340360121878e-15, 2.500000000005e+01, -2.203782734710e-02, -1.225291819242e-05, 5.482465770774e-03, -4.137934786141e-03, -8.948094073595e-12, -1.225291819242e-14, 4.812052485342e-12, 1.852206884173e-15
335, 1.729960645525e-10, 3.579520362098e-14, 2.499999999958e+01, -2.679721213697e-02, 1.995504288515e-06, 1.033985888451e-02, -4.098945345951e-03, -1.135972789372e-11, 1.995504288515e-15, 7.208807617018e-12, -1.059449821046e-14
336, 2.092426449541e-10, 6.216906282702e-14, 2.500000000148e+01, -3.247402724260e-02, -1.646161107600e-04, 1.583964542218e-02, -4.441074685806e-03, -1.406724813073e-11, -1.646161107600e-13, 1.008958820166e-11, -5.077185233272e-14
337, 6.955607173863e-11, -7.686848962062e-15, 2.500000000000e+01, -1.626641555419e-02, 9.471567548062e-07, -2.947165101281e-04, -4.130339080539e-03, -6.063944723351e-12, 9.471567548062e-16, 1.921904798680e-12, 4.093513474403e-15
338, 2.282310550302e-10, 2.164650020334e-13, 2.499999999173e+01, -3.641578575735e-02, -2.833928524136e-04, 2.069310775552e-02, -3.210873606638e-03, -1.656356909350e-11, -2.833928524136e-13, 1.199087766294e-11, 3.888698185837e-14
339, 1.834100605518e-10, -1.032303299984e-13, 2.500000000112e+01, -2.854879366549e-02, 1.153045348753e-04, 1.179686449294e-02, -4.280670403036e-03, -1.212427085479e-11, 1.153045348753e-13, 8.048558224428e-12, 9.790776438390e-15
340, 8.239706199219e-11, 2.209081560661e-15, 2.500000000000e+01, -1.728332143820e-02, -5.474588668131e-06, 7.347117198200e-04, -4.134565204202e-03, -6.573281828842e-12, -5.474588668131e-15, 2.435734750166e-12, 1.096288154790e-15
341, 1.416394777881e-11, -1.721566457741e-14, 2.500000000000e+01, -1.300075940660e-02, -3.784340791237e-08, -3.547993030508e-03, -4.136572525445e-03, -4.431893015736e-12, -3.784340791237e-17, 2.944901723113e-13, 2.004248430755e-16
342, 1.864869344520e-11, -1.788348771876e-14, 2.500000000000e+01, -1.324740831063e-02, 8.047931405038e-07, -3.298626697216e-03, -4.137169709269e-03, -4.555307455989e-12, 8.047931405038e-16, 4.190833507208e-13, -1.881553056927e-16
343, 3.457944874187e-10, -1.802797936584e-12, 2.499999995507e+01, -7.016210722638e-02, 3.303932940012e-03, 4.902857493667e-02, 9.264091924920e-03, -3.574313808332e-11, 3.303932940012e-12, 2.385220299821e-11, 3.969961492336e-12
344, 2.508328612283e-10, 9.789627018701e-14, 2.499999999418e+01, -4.000582822318e-02, -4.869859004198e-04, 2.423362677319e-02, -3.149922616229e-03, -1.835520715552e-11, -4.869859004198e-13, 1.376452034266e-11, 7.274564795555e-14
345, 4.876615732221e-10, 6.787310455595e-12, 2.500000028005e+01, -6.150517086517e-02, -8.662413936685e-03, 4.970160531566e-02, -7.770106739490e-02, -1.116428102704e-11, -8.662413936685e-12, 4.443910706338e-11, -1.926222929190e-11
346, 4.546735574627e-10, -1.026078667931e-11, 2.500000080678e+01, -4.208318200879e-02, -1.979769418958e-02, -8.054554399309e-03, -1.458927838581e-01, 2.370672477786e-11, -1.979769418958e-11, 4.072103858260e-11, -2.819807614680e-11
347, 1.792627696755e-11, -2.089142420247e-15, 2.500000000000e+01, -1.322177125029e-02, -2.926615603791e-07, -3.320482985790e-03, -4.138891401849e-03, -4.542734209645e-12, -2.926615603791e-16, 4.079099226046e-13, -1.294285424734e-15
348, 4.556411365813e-10, -1.293592758288e-11, 2.500000071500e+01, -5.341478834928e-02, 7.712231175817e-03, -4.176205106231e-02, -1.493887044244e-01, 3.197656806508e-11, 7.712231175817e-12, 3.780293670856e-11, -1.601038997249e-11
349, 4.646613723336e-10, -2.744258479591e-11, 2.500000012761e+01, -9.503950283206e-02, 6.805933957320e-02, 5.577036690906e-02, -3.311254322669e-02, -3.275749991437e-11, 6.805933957320e-11, 4.264743495619e-11, -1.794020111684e-12
350, 2.963430096802e-10, -9.629078652250e-13, 2.500000004527e+01, -5.097268108657e-02, 2.047340894795e-03, 2.597334295576e-02, -9.873547857798e-03, -2.009787148336e-11, 2.047340894795e-12, 1.837514053780e-11, 4.516951310233e-13
351, 1.212875040351e-10, -3.070049951943e-14, 2.500000000008e+01, -2.081316804842e-02, 6.519332824124e-06, 4.239060401703e-03, -4.143157839520e-03, -8.331705778016e-12, 6.519332824124e-15, 4.194408447045e-12, 3.299326433131e-15
352, 3.701210639504e-11, -8.474250414736e-15, 2.500000000000e+01, -1.419784272957e-02, 1.017915398697e-06, -2.342033985956e-03, -4.138404009214e-03, -5.031131296283e-12, 1.017915398697e-15, 8.967730755261e-13, -1.411936103054e-15
353, 1.493238770260e-10, -1.709486000526e-14, 2.499999999961e+01, -2.398766026724e-02, 5.215445649979e-06, 7.500023372756e-03, -4.091931137394e-03, -9.952313129287e-12, 5.215445649979e-15, 5.791528690710e-12, -4.448564364691e-15
354, 1.920354534773e-10, -1.189298113205e-14, 2.500000000108e+01, -2.994276275891e-02, -3.697460613381e-05, 1.317446957261e-02, -4.271877178410e-03, -1.282274073921e-11, -3.697460613381e-14, 8.735875426550e-12, 1.270205104136e-14
355, 3.576303242438e-11, 1.019346301881e-15, 2.500000000000e+01, -1.408580958214e-02, -2.653167911381e-07, -2.458653557954e-03, -4.136746681078e-03, -4.974815889955e-12, -2.653167911381e-16, 8.387621221353e-13, -2.844394266615e-16
356, 7.820143813942e-11, -3.067505315409e-15, 2.500000000001e+01, -1.703140703643e-02, 3.274662716067e-06, 4.761572458125e-04, -4.132429557108e-03, -6.446504469452e-12, 3.274662716067e-15, 2.307277671667e-12, 2.984270206931e-15
357, 3.578854592401e-11, 1.641540782280e-18, 2.500000000000e+01, -1.408749953416e-02, 6.108350033913e-07, -2.457139911967e-03, -4.136039782231e-03, -4.975709747259e-12, 6.108350033913e-16, 8.394700638393e-13, 2.012870731539e-17
358, 7.820470898340e-11, 7.057771094624e-15, 2.500000000000e+01, -1.690571297221e-02, -4.311423112694e-06, 3.552113025522e-04, -4.136130853069e-03, -6.384146529858e-12, -4.311423112694e-15, 2.246315607523e-12, 6.445297122757e-16
359, 4.610343361740e-10, 1.042985258156e-11, 2.500000075493e+01, -8.186138290316e-02, -8.622565662089e-03, -2.880964325612e-02, -1.215360290622e-01, 1.399722161809e-11, -8.622565662089e-12, 4.052309144161e-11, -5.840101461414e-12
360, 8.194963752529e-11, 5.969854774288e-15, 2.500000000000e+01, -1.718122806215e-02, -2.333820713977e-08, 6.281422978610e-04, -4.134633388694e-03, -6.521784668397e-12, -2.333820713977e-17, 2.382900511609e-12, 1.512668331687e-15
361, 4.785346364957e-10, -4.370977584999e-12, 2.500000006216e+01, 2.240620325162e-02, -9.499229196059e-03, 8.429338809352e-02, -1.181186111767e-01, 1.495569293769e-11, -9.499229196059e-12, 4.589928535864e-11, -5.530671427649e-11
362, 1.864682812239e-11, 7.038930086833e-15, 2.500000000000e+01, -1.322651267758e-02, -2.098970200740e-07, -3.319539785411e-03, -4.136603896424e-03, -4.544940164903e-12, -2.098970200740e-16, 4.085462811800e-13, 1.422567338495e-17
363, 1.142983031412e-10, -3.793381303231e-16, 2.500000000000e+01, -2.002096763750e-02, -6.494238421706e-07, 3.489467963244e-03, -4.141876589405e-03, -7.943100864496e-12, -6.494238421706e-16, 3.812116935878e-12, -3.555340446336e-15
364, 1.002340226488e-09, 5.581740528470e-12, 2.499999470098e+01, -4.283993892274e-01, 5.358531528937e-02, 1.200111834564e+00, 9.177421138688e-01, -6.374281912563e-10, 5.358531528937e-11, 1.768274206392e-10, 3.564256029180e-11
365, 4.621195311954e-10, 1.829559807618e-11, 2.500000008016e+01, -1.738577676350e-02, -4.476202914677e-02, 7.286980436782e-02, -8.278370384879e-02, -2.596075138999e-12, -4.476202914677e-11, 4.253171542666e-11, -3.529503868164e-11
366, 1.183704424563e-10, 2.694149398869e-14, 2.499999999996e+01, -2.051047466151e-02, -1.485002430762e-05, 3.971412600637e-03, -4.136886452276e-03, -8.189207435606e-12, -1.485002430762e-14, 4.051736195469e-12, -2.413330987455e-15
367, 9.267298141579e-10, 2.164321671177e-12, 2.499999654468e+01, -3.096604304441e-01, -8.037173809631e-03, 7.300548514876e-01, 4.537616055181e-01, -3.771049756676e-10, -8.037173809631e-12, 1.427526652982e-10, 4.606042313435e-12
368, 4.123709102082e-11, -1.974605583336e-14, 2.500000000000e+01, -1.438757347028e-02, 2.716173739460e-06, -2.155738124891e-03, -4.137486247490e-03, -5.125661888253e-12, 2.716173739460e-15, 9.902557844405e-13, -6.182768587587e-16
369, 3.075195941472e-10, -4.362668967351e-13, 2.500000001636e+01, -5.467235211776e-02, -2.207042860046e-04, 3.303579493299e-02, -4.677613811281e-03, -2.401783676015e-11, -2.207042860046e-13, 1.983623676522e-11, 9.795323930862e-13
370, 3.037765051583e-10, -2.997788410648e-13, 2.500000005884e+01, -5.397593672684e-02, -1.679216004804e-03, 2.654310420231e-02, -1.028419556071e-02, -2.074485254998e-11, -1.679216004804e-12, 1.951466791459e-11, 1.101018033080e-12
371, 1.636355448063e-10, 3.337243733193e-14, 2.499999999963e+01, -2.583842926869e-02, 3.200448855266e-05, 9.315025437140e-03, -4.069182906717e-03, -1.087568967885e-11, 3.200448855266e-14, 6.701037674068e-12, 8.933502139960e-15
372, 2.208501854131e-10, 4.943184301507e-14, 2.499999999991e+01, -3.492553335171e-02, 1.109516088592e-04, 1.788162567804e-02, -3.838066104769e-03, -1.537852197619e-11, 1.109516088592e-13, 1.102505753868e-11, 1.652116472748e-13
373, 4.541778583712e-10, -2.437253608786e-11, 2.500000055761e+01, -9.070650310577e-02, 6.035146012917e-02, -6.595728433546e-03, -8.615241373540e-02, -3.588294120450e-12, 6.035146012917e-11, 3.846709321566e-11, -1.311249435263e-12
374, 3.647802954426e-10, 1.805053669320e-12, 2.500000009010e+01, -7.568692973602e-02, -6.532996869534e-03, 3.679639998817e-02, -9.746491618527e-03, -2.919556771536e-11, -6.532996869534e-12, 2.704609714673e-11, 3.774651343385e-12
375, 1.058227236464e-09, -7.642829424499e-12, 2.499999415822e+01, -1.434694179874e-01, -1.261470495515e-02, 1.216018444057e+00, 5.919551028971e-01, -4.835400455112e-10, -1.261470495515e-11, 1.962038855112e-10, -1.158277850689e-10
376, 3.772954687239e-10, -1.741270296786e-14, 2.499999982573e+01, -7.206616763978e-02, 2.199094797173e-03, 7.496176765390e-02, 2.251165401414e-02, -4.553811083811e-11, 2.199094797173e-12, 2.797585680872e-11, 1.750799988847e-12
377, 3.560233623873e-11, -1.266373435447e-14, 2.500000000000e+01, -1.407075045400e-02, 5.075933880161e-07, -2.469624629283e-03, -4.138670649390e-03, -4.967509300154e-12, 5.075933880161e-16, 8.330536122066e-13, -1.469397846521e-15
378, 1.020340795333e-09, 8.611207652470e-12, 2.499999256679e+01, 6.135351901071e-02, 1.618089647920e-05, 1.445888380852e+00, 6.937981349281e-01, -5.016220259786e-10, 1.618089647920e-14, 1.906454049420e-10, -1.853997180199e-10
379, 1.075473238864e-09, -1.794564403216e-12, 2.499999332293e+01, -1.346163279466e-01, 1.960069238342e-02, 1.349930889905e+00, 7.004861552597e-01, -5.393253729940e-10, 1.960069238342e-11, 2.029482359318e-10, -1.217741313908e-10
380, 3.764743836244e-11, -8.645072536944e-15, 2.500000000000e+01, -1.414452493512e-02, -4.073369561159e-07, -2.405112497935e-03, -4.134166167817e-03, -5.003913367799e-12, -4.073369561159e-16, 8.657928507917e-13, 1.266015850862e-15
381, 2.250285838986e-10, -1.639273064048e-13, 2.500000000066e+01, -3.523231243951e-02, 9.232413164036e-05, 1.854597983510e-02, -4.191014824882e-03, -1.550057904446e-11, 9.232413164036e-14, 1.138856709284e-11, 2.006976284720e-14
382, 4.789475724616e-10, -1.473493777886e-11, 2.499999998777e+01, -9.069606324308e-02, 7.372501306743e-02, 7.975057102457e-02, -1.796415623390e-02, -3.988826778293e-11, 7.372501306743e-11, 4.533504935090e-11, -3.522314278338e-12
383, 1.589386388185e-10, -4.643837772516e-14, 2.499999999961e+01, -2.514108541150e-02, 5.112796488474e-05, 8.697220347263e-03, -4.116013221782e-03, -1.053098094832e-11, 5.112796488474e-14, 6.388171931063e-12, -1.844485345935e-14
384, 1.040860068043e-09, -2.687127081560e-12, 2.499999221420e+01, -6.606405367624e-02, -1.517689885685e-01, 1.510675072340e+00, 9.001900160279e-01, -5.945157003639e-10, -1.517689885685e-10, 1.938538626440e-10, -1.113886655119e-10
385, 1.634114777392e-10, -5.268863968379e-15, 2.499999999976e+01, -2.577788343472e-02, -3.209459723312e-05, 9.265937438118e-03, -4.116019398544e-03, -1.083613550108e-11, -3.209459723312e-14, 6.685774935339e-12, -5.203482992822e-15
386, 4.778292795658e-10, 2.203892734497e-13, 2.500000001190e+01, -2.333667231239e-03, -3.592954604747e-02, 9.164936364948e-02, -8.413422157464e-02, -1.185004613101e-12, -3.592954604747e-11, 4.580651082726e-11, -4.208528178480e-11
387, 1.425908708796e-11, -1.762557116213e-15, 2.500000000000e+01, -1.300664133779e-02, 3.861649871326e-07, -3.538887967029e-03, -4.135457324259e-03, -4.435198280967e-12, 3.861649871326e-16, 2.986784044155e-13, 3.937258008179e-16
388, 3.178911733485e-10, 1.888747633596e-12, 2.500000006361e+01, -5.776731619839e-02, -2.236938398605e-03, 2.860455928147e-02, -1.163857731371e-02, -2.213197275778e-11, -2.236938398605e-12, 2.105396498215e-11, 9.323966845631e-13
389, 3.117924750610e-10, -1.333407572847e-12, 2.500000000580e+01, -5.492543339679e-02, 2.460059487707e-03, 3.577343844066e-02, -2.935732725382e-03, -2.501052595114e-11, 2.460059487707e-12, 2.033890996759e-11, 9.843243845667e-13
390, 1.042845806678e-09, 4.840279035973e-13, 2.499999221678e+01, 5.674634670882e-02, 1.601903389510e-02, 1.504682367471e+00, 7.244694116512e-01, -5.271119791671e-10, 1.601903389510e-11, 1.968560312138e-10, -1.932504466959e-10
391, 3.964756195159e-11, 1.121831587485e-14, 2.500000000000e+01, -1.429788183998e-02, -3.935926846379e-06, -2.244970796761e-03, -4.137011253597e-03, -5.081032868293e-12, -3.935926846379e-15, 9.454226533170e-13, -5.975751011476e-16
392, 1.029446722829e-09, 4.883222889310e-12, 2.499999375990e+01, -4.627304279112e-02, -6.229155647312e-03, 1.268543617896e+00, 5.960229069564e-01, -4.670501914839e-10, -6.229155647312e-12, 1.903581388599e-10, -1.459022166101e-10
393, 1.331613500077e-10, 1.173114408399e-14, 2.499999999996e+01, -2.208277660225e-02, -7.887164025533e-06, 5.560360687945e-03, -4.139451226002e-03, -8.976926500640e-12, -7.887164025533e-15, 4.844642144458e-12, -5.263812515496e-15
394, 1.021065660118e-09, -4.699791220207e-12, 2.499999474289e+01, -1.165636391039e-01, -1.524907421107e-02, 1.115218215756e+00, 5.129936023011e-01, -4.302451489963e-10, -1.524907421107e-11, 1.856457784338e-10, -1.154665282938e-10
395, 4.385647519211e-10, -3.688048884213e-12, 2.499999985492e+01, -1.066844615012e-01, 6.434445529412e-03, 9.117981960624e-02, 3.357886037484e-02, -6.124288627087e-11, 6.434445529412e-12, 3.768925428284e-11, 8.888774667141e-12
396, 6.074810784398e-11, -1.992931044297e-14, 2.500000000000e+01, -1.561987123279e-02, 6.101654324933e-07, -9.306098242193e-04, -4.136578663703e-03, -5.741189356550e-12, 6.101654324933e-16, 1.603441347734e-12, 4.569279926318e-16
397, 1.856145964767e-10, 4.183719233916e-14, 2.500000000080e+01, -2.873819543748e-02, 2.101305570994e-05, 1.216125078180e-02, -4.335836476635e-03, -1.224426705277e-11, 2.101305570994e-14, 8.205456056868e-12, -4.308757234922e-14
398, 4.840781685182e-11, 1.151902646464e-14, 2.500000000000e+01, -1.481822824457e-02, -1.525420300992e-06, -1.728840365686e-03, -4.134331815913e-03, -5.340923943772e-12, -1.525420300992e-15, 1.203769995669e-12, 1.024270555847e-15
399, 4.945432628375e-10, 3.145890380240e-11, 2.499999990778e+01, -1.084257000186e-01, -6.227529245832e-02, 1.042388395712e-01, 2.188989734648e-02, -5.985624488033e-11, -6.227529245832e-11, 4.647602491459e-11, 5.301553802231e-12
400, 1.040427678827e-09, 8.307211298538e-12, 2.499999209207e+01, 9.950572898129e-02, -3.152525918473e-02, 1.526432099323e+00, 7.292457817233e-01, -5.178986290929e-10, -3.152525918473e-11, 1.955645560780e-10, -2.030286027219e-10
401, 4.670862220649e-10, 1.579148015238e-11, 2.500000026234e+01, -6.519270287962e-02, -2.286666549953e-02, 5.143235322932e-02, -6.400469826058e-02, -1.380140451137e-11, -2.286666549953e-11, 4.451112354310e-11, -1.320740220185e-11
402, 2.339424562331e-10, 2.229204168219e-13, 2.500000000127e+01, -3.686402187856e-02, -6.309820475471e-04, 2.010828766245e-02, -4.340323427391e-03, -1.626893956965e-11, -6.309820475471e-13, 1.221721520085e-11, -7.090344068916e-15
403, 3.140356128510e-10, -1.779948223677e-13, 2.499999998409e+01, -5.321099802149e-02, 6.395708620717e-05, 3.959983809026e-02, -2.430743065519e-03, -2.566937384495e-11, 6.395708620717e-14, 2.073604421093e-11, -2.792463669644e-13
404, 1.673422244688e-10, -7.366050319190e-15, 2.499999999891e+01, -2.612144281978e-02, -4.604728775351e-06, 9.741284150198e-03, -4.049583785213e-03, -1.105726624101e-11, -4.604728775351e-15, 6.874097243975e-12, -2.133672373101e-14
405, 1.126561955910e-09, -2.611115195043e-11, 2.499998863805e+01, -2.852183026896e-02, 2.129571170710e-02, 1.994457747836e+00, 1.326875770507e+00, -7.854628993751e-10, 2.129571170710e-11, 2.260268896776e-10, -1.077640989872e-10
406, 2.894312531176e-10, 1.478464713512e-12, 2.500000003252e+01, -4.564975316730e-02, -3.412652211577e-03, 2.714195908412e-02, -1.079711286695e-02, -1.852872378790e-11, -3.412652211577e-12, 1.786713233781e-11, -1.102403637725e-12
407, 1.683355740750e-11, 3.559716843479e-15, 2.500000000000e+01, -1.313571336382e-02, -5.544744195438e-07, -3.413970231402e-03, -4.134499529159e-03, -4.499494871831e-12, -5.544744195438e-16, 3.613766943791e-13, 1.112045500284e-15
408, 4.473404865123e-10, -7.110511781727e-12, 2.500000082854e+01, -9.476753645717e-02, 3.402059658392e-03, -4.669912935892e-02, -1.238452545973e-01, 1.394619137094e-11, 3.402059658392e-12, 3.798039492006e-11, -5.926676991056e-13
409, 1.445557851368e-11, 2.776933310154e-15, 2.500000000000e+01, -1.301879764076e-02, -5.190661869961e-07, -3.530531757146e-03, -4.135722223836e-03, -4.440896791700e-12, -5.190661869961e-16, 3.032361501080e-13, 6.409167631610e-16
410, 1.016561274903e-09, 5.805740342524e-12, 2.499999263050e+01, 1.060862794052e-01, -4.066540556375e-02, 1.439922078550e+00, 6.620769514998e-01, -4.772843861891e-10, -4.066540556375e-11, 1.896335133831e-10, -1.992890501418e-10
411, 1.417303303343e-11, 5.972788707758e-15, 2.500000000000e+01, -1.300059411234e-02, -7.546967788494e-08, -3.542217365740e-03, -4.136198196743e-03, -4.432469949604e-12, -7.546967788494e-17, 2.967184236946e-13, -2.719918069953e-16
412, 1.080218567233e-09, -2.594857841690e-12, 2.499999108194e+01, 8.414596868870e-02, 3.384282000576e-04, 1.728597359362e+00, 1.049524501149e+00, -6.187124793083e-10, 3.384282000576e-13, 2.035132160282e-10, -1.360232130781e-10
413, 4.903135176128e-10, -2.269588957572e-11, 2.500000001388e+01, -7.519184685681e-02, 1.015015224746e-01, 9.011035026194e-02, -2.913562793178e-02, -3.559127584624e-11, 1.015015224746e-10, 4.705982271313e-11, -1.256316638373e-11
414, 9.528956580375e-11, -2.099971455991e-14, 2.499999999999e+01, -1.833144456538e-02, 2.537304513216e-06, 1.780270526874e-03, -4.137878567832e-03, -7.097082622930e-12, 2.537304513216e-15, 2.958774923196e-12, -2.996241569810e-16
415, 9.773726264582e-10, -6.754724706685e-11, 2.499999593939e+01, -3.813550991326e-01, 1.072046699331e-01, 8.858566028938e-01, 6.136906471723e-01, -4.730421836414e-10, 1.072046699331e-10, 1.605636673718e-10, 2.448068951102e-11
416, 2.090583901478e-10, -4.507281636837e-15, 2.500000000468e+01, -3.273223786765e-02, -2.811788542389e-05, 1.530030147550e-02, -4.616320824091e-03, -1.396475811467e-11, -2.811788542389e-14, 1.005151155690e-11, 9.320040710799e-14
417, 1.495724505984e-10, -2.739599538133e-14, 2.500000000015e+01, -2.401073103244e-02, 4.365300394540e-05, 7.446842070741e-03, -4.147978066249e-03, -9.928088794271e-12, 4.365300394540e-14, 5.800697757321e-12, 3.287688826244e-15
418, 1.495700698043e-10, -3.274670547842e-14, 2.499999999992e+01, -2.401571119480e-02, 8.059160533347e-06, 7.475014615650e-03, -4.106504890664e-03, -9.946453223141e-12, 8.059160533347e-15, 5.798909682083e-12, 8.149928926089e-15
419, 3.272061886483e-10, 6.052469632082e-13, 2.500000006113e+01, -5.842003052238e-02, -9.858800887503e-05, 3.147126047275e-02, -1.050533014294e-02, -2.289704113927e-11, -9.858800887503e-14, 2.204860435829e-11, 1.060309050449e-12
420, 2.652917202652e-10, 1.342100018533e-13, 2.499999999887e+01, -4.124380507722e-02, -2.184892801223e-04, 2.660610718684e-02, -4.988381308700e-03, -1.870678375666e-11, -2.184892801223e-13, 1.521817237537e-11, -5.790718723977e-13
421, 3.400730538616e-11, 3.376263206901e-15, 2.500000000000e+01, -1.399551750665e-02, -1.619753929331e-06, -2.554858014085e-03, -4.135242703947e-03, -4.929237815485e-12, -1.619753929331e-15, 7.910919307964e-13, 8.995858657156e-16
422, 4.672366179551e-10, -2.360382336978e-11, 2.500000020116e+01, -4.542400844119e-02, 8.586221548077e-02, 5.678560874142e-02, -7.950376334843e-02, -7.448931581221e-12, 8.586221548077e-11, 4.365587701008e-11, -2.448880903484e-11
423, 4.967456774665e-11, -1.577384019840e-14, 2.500000000000e+01, -1.490687061980e-02, 1.337542778863e-06, -1.647327186511e-03, -4.135523050976e-03, -5.384434276660e-12, 1.337542778863e-15, 1.245337439984e-12, 1.239507751832e-15
424, 1.467029714885e-10, -1.066395177370e-14, 2.499999999998e+01, -2.368772074099e-02, -3.172903544817e-05, 7.118986755166e-03, -4.120368880434e-03, -9.775865213174e-12, -3.172903544817e-14, 5.627488534903e-12, 7.810717102826e-15
425, 4.847310925176e-10, 1.664416965495e-11, 2.499999972639e+01, -9.300101958105e-02, -3.147166694584e-02, 1.281686337559e-01, 3.769332338873e-02, -6.527804786566e-11, -3.147166694584e-11, 4.530677880282e-11, 6.912361922683e-14
