VARIABLES  = "X","Y","Z", "TEMPERATURE1", "DISPLACEMENT_X1", "DISPLACEMENT_Y1", "STRESS_XX", "STRESS_XY", "STRESS_YY", "STRESS_ZZ", "STRAIN_XX", "STRAIN_XY", "STRAIN_YY", "STRAIN_ZZ", "STRAIN_PLS"
ZONE T="0.000000000000e+00s", N=121, E=100, F=FEPOINT, ET=QUADRILATERAL
STRANDID=1, SOLUTIONTIME=0.000000000000e+00
0.000000000000e+00 1.000000000000e+01 0.000000000000e+00 2.981500000000e+02 0.000000000000e+00 0.000000000000e+00 0.000000000000e+00 0.000000000000e+00 0.000000000000e+00 0.000000000000e+00 0.000000000000e+00 0.000000000000e+00 0.000000000000e+00 0.000000000000e+00 0.000000000000e+00 
0.000000000000e+00 9.000000000000e+00 0.000000000000e+00 2.981500000000e+02 0.000000000000e+00 0.000000000000e+00 0.000000000000e+00 0.000000000000e+00 0.000000000000e+00 0.000000000000e+00 0.000000000000e+00 0.000000000000e+00 0.000000000000e+00 0.000000000000e+00 0.000000000000e+00 
1.000000000000e+00 9.000000000000e+00 0.000000000000e+00 2.981500000000e+02 0.000000000000e+00 0.000000000000e+00 0.000000000000e+00 0.000000000000e+00 0.000000000000e+00 0.000000000000e+00 0.000000000000e+00 0.000000000000e+00 0.000000000000e+00 0.000000000000e+00 0.000000000000e+00 
1.000000000000e+00 1.000000000000e+01 0.000000000000e+00 2.981500000000e+02 0.000000000000e+00 0.000000000000e+00 0.000000000000e+00 0.000000000000e+00 0.000000000000e+00 0.000000000000e+00 0.000000000000e+00 0.000000000000e+00 0.000000000000e+00 0.000000000000e+00 0.000000000000e+00 
2.000000000000e+00 9.000000000000e+00 0.000000000000e+00 2.981500000000e+02 0.000000000000e+00 0.000000000000e+00 0.000000000000e+00 0.000000000000e+00 0.000000000000e+00 0.000000000000e+00 0.000000000000e+00 0.000000000000e+00 0.000000000000e+00 0.000000000000e+00 0.000000000000e+00 
2.000000000000e+00 1.000000000000e+01 0.000000000000e+00 2.981500000000e+02 0.000000000000e+00 0.000000000000e+00 0.000000000000e+00 0.000000000000e+00 0.000000000000e+00 0.000000000000e+00 0.000000000000e+00 0.000000000000e+00 0.000000000000e+00 0.000000000000e+00 0.000000000000e+00 
3.000000000000e+00 9.000000000000e+00 0.000000000000e+00 2.981500000000e+02 0.000000000000e+00 0.000000000000e+00 0.000000000000e+00 0.000000000000e+00 0.000000000000e+00 0.000000000000e+00 0.000000000000e+00 0.000000000000e+00 0.000000000000e+00 0.000000000000e+00 0.000000000000e+00 
3.000000000000e+00 1.000000000000e+01 0.000000000000e+00 2.981500000000e+02 0.000000000000e+00 0.000000000000e+00 0.000000000000e+00 0.000000000000e+00 0.000000000000e+00 0.000000000000e+00 0.000000000000e+00 0.000000000000e+00 0.000000000000e+00 0.000000000000e+00 0.000000000000e+00 
4.000000000000e+00 9.000000000000e+00 0.000000000000e+00 2.981500000000e+02 0.000000000000e+00 0.000000000000e+00 0.000000000000e+00 0.000000000000e+00 0.000000000000e+00 0.000000000000e+00 0.000000000000e+00 0.000000000000e+00 0.000000000000e+00 0.000000000000e+00 0.000000000000e+00 
4.000000000000e+00 1.000000000000e+01 0.000000000000e+00 2.981500000000e+02 0.000000000000e+00 0.000000000000e+00 0.000000000000e+00 0.000000000000e+00 0.000000000000e+00 0.000000000000e+00 0.000000000000e+00 0.000000000000e+00 0.000000000000e+00 0.000000000000e+00 0.000000000000e+00 
5.000000000000e+00 9.000000000000e+00 0.000000000000e+00 2.981500000000e+02 0.000000000000e+00 0.000000000000e+00 0.000000000000e+00 0.000000000000e+00 0.000000000000e+00 0.000000000000e+00 0.000000000000e+00 0.000000000000e+00 0.000000000000e+00 0.000000000000e+00 0.000000000000e+00 
5.000000000000e+00 1.000000000000e+01 0.000000000000e+00 2.981500000000e+02 0.000000000000e+00 0.000000000000e+00 0.000000000000e+00 0.000000000000e+00 0.000000000000e+00 0.000000000000e+00 0.000000000000e+00 0.000000000000e+00 0.000000000000e+00 0.000000000000e+00 0.000000000000e+00 
0.000000000000e+00 8.000000000000e+00 0.000000000000e+00 2.981500000000e+02 0.000000000000e+00 0.000000000000e+00 0.000000000000e+00 0.000000000000e+00 0.000000000000e+00 0.000000000000e+00 0.000000000000e+00 0.000000000000e+00 0.000000000000e+00 0.000000000000e+00 0.000000000000e+00 
1.000000000000e+00 8.000000000000e+00 0.000000000000e+00 2.981500000000e+02 0.000000000000e+00 0.000000000000e+00 0.000000000000e+00 0.000000000000e+00 0.000000000000e+00 0.000000000000e+00 0.000000000000e+00 0.000000000000e+00 0.000000000000e+00 0.000000000000e+00 0.000000000000e+00 
2.000000000000e+00 8.000000000000e+00 0.000000000000e+00 2.981500000000e+02 0.000000000000e+00 0.000000000000e+00 0.000000000000e+00 0.000000000000e+00 0.000000000000e+00 0.000000000000e+00 0.000000000000e+00 0.000000000000e+00 0.000000000000e+00 0.000000000000e+00 0.000000000000e+00 
3.000000000000e+00 8.000000000000e+00 0.000000000000e+00 2.981500000000e+02 0.000000000000e+00 0.000000000000e+00 0.000000000000e+00 0.000000000000e+00 0.000000000000e+00 0.000000000000e+00 0.000000000000e+00 0.000000000000e+00 0.000000000000e+00 0.000000000000e+00 0.000000000000e+00 
4.000000000000e+00 8.000000000000e+00 0.000000000000e+00 2.981500000000e+02 0.000000000000e+00 0.000000000000e+00 0.000000000000e+00 0.000000000000e+00 0.000000000000e+00 0.000000000000e+00 0.000000000000e+00 0.000000000000e+00 0.000000000000e+00 0.000000000000e+00 0.000000000000e+00 
5.000000000000e+00 8.000000000000e+00 0.000000000000e+00 2.981500000000e+02 0.000000000000e+00 0.000000000000e+00 0.000000000000e+00 0.000000000000e+00 0.000000000000e+00 0.000000000000e+00 0.000000000000e+00 0.000000000000e+00 0.000000000000e+00 0.000000000000e+00 0.000000000000e+00 
0.000000000000e+00 7.000000000000e+00 0.000000000000e+00 2.981500000000e+02 0.000000000000e+00 0.000000000000e+00 0.000000000000e+00 0.000000000000e+00 0.000000000000e+00 0.000000000000e+00 0.000000000000e+00 0.000000000000e+00 0.000000000000e+00 0.000000000000e+00 0.000000000000e+00 
1.000000000000e+00 7.000000000000e+00 0.000000000000e+00 2.981500000000e+02 0.000000000000e+00 0.000000000000e+00 0.000000000000e+00 0.000000000000e+00 0.000000000000e+00 0.000000000000e+00 0.000000000000e+00 0.000000000000e+00 0.000000000000e+00 0.000000000000e+00 0.000000000000e+00 
2.000000000000e+00 7.000000000000e+00 0.000000000000e+00 2.981500000000e+02 0.000000000000e+00 0.000000000000e+00 0.000000000000e+00 0.000000000000e+00 0.000000000000e+00 0.000000000000e+00 0.000000000000e+00 0.000000000000e+00 0.000000000000e+00 0.000000000000e+00 0.000000000000e+00 
3.000000000000e+00 7.000000000000e+00 0.000000000000e+00 2.981500000000e+02 0.000000000000e+00 0.000000000000e+00 0.000000000000e+00 0.000000000000e+00 0.000000000000e+00 0.000000000000e+00 0.000000000000e+00 0.000000000000e+00 0.000000000000e+00 0.000000000000e+00 0.000000000000e+00 
4.000000000000e+00 7.000000000000e+00 0.000000000000e+00 2.981500000000e+02 0.000000000000e+00 0.000000000000e+00 0.000000000000e+00 0.000000000000e+00 0.000000000000e+00 0.000000000000e+00 0.000000000000e+00 0.000000000000e+00 0.000000000000e+00 0.000000000000e+00 0.000000000000e+00 
5.000000000000e+00 7.000000000000e+00 0.000000000000e+00 2.981500000000e+02 0.000000000000e+00 0.000000000000e+00 0.000000000000e+00 0.000000000000e+00 0.000000000000e+00 0.000000000000e+00 0.000000000000e+00 0.000000000000e+00 0.000000000000e+00 0.000000000000e+00 0.000000000000e+00 
0.000000000000e+00 6.000000000000e+00 0.000000000000e+00 2.981500000000e+02 0.000000000000e+00 0.000000000000e+00 0.000000000000e+00 0.000000000000e+00 0.000000000000e+00 0.000000000000e+00 0.000000000000e+00 0.000000000000e+00 0.000000000000e+00 0.000000000000e+00 0.000000000000e+00 
1.000000000000e+00 6.000000000000e+00 0.000000000000e+00 2.981500000000e+02 0.000000000000e+00 0.000000000000e+00 0.000000000000e+00 0.000000000000e+00 0.000000000000e+00 0.000000000000e+00 0.000000000000e+00 0.000000000000e+00 0.000000000000e+00 0.000000000000e+00 0.000000000000e+00 
2.000000000000e+00 6.000000000000e+00 0.000000000000e+00 2.981500000000e+02 0.000000000000e+00 0.000000000000e+00 0.000000000000e+00 0.000000000000e+00 0.000000000000e+00 0.000000000000e+00 0.000000000000e+00 0.000000000000e+00 0.000000000000e+00 0.000000000000e+00 0.000000000000e+00 
3.000000000000e+00 6.000000000000e+00 0.000000000000e+00 2.981500000000e+02 0.000000000000e+00 0.000000000000e+00 0.000000000000e+00 0.000000000000e+00 0.000000000000e+00 0.000000000000e+00 0.000000000000e+00 0.000000000000e+00 0.000000000000e+00 0.000000000000e+00 0.000000000000e+00 
4.000000000000e+00 6.000000000000e+00 0.000000000000e+00 2.981500000000e+02 0.000000000000e+00 0.000000000000e+00 0.000000000000e+00 0.000000000000e+00 0.000000000000e+00 0.000000000000e+00 0.000000000000e+00 0.000000000000e+00 0.000000000000e+00 0.000000000000e+00 0.000000000000e+00 
5.000000000000e+00 6.000000000000e+00 0.000000000000e+00 2.981500000000e+02 0.000000000000e+00 0.000000000000e+00 0.000000000000e+00 0.000000000000e+00 0.000000000000e+00 0.000000000000e+00 0.000000000000e+00 0.000000000000e+00 0.000000000000e+00 0.000000000000e+00 0.000000000000e+00 
0.000000000000e+00 5.000000000000e+00 0.000000000000e+00 2.981500000000e+02 0.000000000000e+00 0.000000000000e+00 0.000000000000e+00 0.000000000000e+00 0.000000000000e+00 0.000000000000e+00 0.000000000000e+00 0.000000000000e+00 0.000000000000e+00 0.000000000000e+00 0.000000000000e+00 
1.000000000000e+00 5.000000000000e+00 0.000000000000e+00 2.981500000000e+02 0.000000000000e+00 0.000000000000e+00 0.000000000000e+00 0.000000000000e+00 0.000000000000e+00 0.000000000000e+00 0.000000000000e+00 0.000000000000e+00 0.000000000000e+00 0.000000000000e+00 0.000000000000e+00 
2.000000000000e+00 5.000000000000e+00 0.000000000000e+00 2.981500000000e+02 0.000000000000e+00 0.000000000000e+00 0.000000000000e+00 0.000000000000e+00 0.000000000000e+00 0.000000000000e+00 0.000000000000e+00 0.000000000000e+00 0.000000000000e+00 0.000000000000e+00 0.000000000000e+00 
3.000000000000e+00 5.000000000000e+00 0.000000000000e+00 2.981500000000e+02 0.000000000000e+00 0.000000000000e+00 0.000000000000e+00 0.000000000000e+00 0.000000000000e+00 0.000000000000e+00 0.000000000000e+00 0.000000000000e+00 0.000000000000e+00 0.000000000000e+00 0.000000000000e+00 
4.000000000000e+00 5.000000000000e+00 0.000000000000e+00 2.981500000000e+02 0.000000000000e+00 0.000000000000e+00 0.000000000000e+00 0.000000000000e+00 0.000000000000e+00 0.000000000000e+00 0.000000000000e+00 0.000000000000e+00 0.000000000000e+00 0.000000000000e+00 0.000000000000e+00 
5.000000000000e+00 5.000000000000e+00 0.000000000000e+00 2.981500000000e+02 0.000000000000e+00 0.000000000000e+00 0.000000000000e+00 0.000000000000e+00 0.000000000000e+00 0.000000000000e+00 0.000000000000e+00 0.000000000000e+00 0.000000000000e+00 0.000000000000e+00 0.000000000000e+00 
0.000000000000e+00 4.000000000000e+00 0.000000000000e+00 2.981500000000e+02 0.000000000000e+00 0.000000000000e+00 0.000000000000e+00 0.000000000000e+00 0.000000000000e+00 0.000000000000e+00 0.000000000000e+00 0.000000000000e+00 0.000000000000e+00 0.000000000000e+00 0.000000000000e+00 
1.000000000000e+00 4.000000000000e+00 0.000000000000e+00 2.981500000000e+02 0.000000000000e+00 0.000000000000e+00 0.000000000000e+00 0.000000000000e+00 0.000000000000e+00 0.000000000000e+00 0.000000000000e+00 0.000000000000e+00 0.000000000000e+00 0.000000000000e+00 0.000000000000e+00 
2.000000000000e+00 4.000000000000e+00 0.000000000000e+00 2.981500000000e+02 0.000000000000e+00 0.000000000000e+00 0.000000000000e+00 0.000000000000e+00 0.000000000000e+00 0.000000000000e+00 0.000000000000e+00 0.000000000000e+00 0.000000000000e+00 0.000000000000e+00 0.000000000000e+00 
3.000000000000e+00 4.000000000000e+00 0.000000000000e+00 2.981500000000e+02 0.000000000000e+00 0.000000000000e+00 0.000000000000e+00 0.000000000000e+00 0.000000000000e+00 0.000000000000e+00 0.000000000000e+00 0.000000000000e+00 0.000000000000e+00 0.000000000000e+00 0.000000000000e+00 
4.000000000000e+00 4.000000000000e+00 0.000000000000e+00 2.981500000000e+02 0.000000000000e+00 0.000000000000e+00 0.000000000000e+00 0.000000000000e+00 0.000000000000e+00 0.000000000000e+00 0.000000000000e+00 0.000000000000e+00 0.000000000000e+00 0.000000000000e+00 0.000000000000e+00 
5.000000000000e+00 4.000000000000e+00 0.000000000000e+00 2.981500000000e+02 0.000000000000e+00 0.000000000000e+00 0.000000000000e+00 0.000000000000e+00 0.000000000000e+00 0.000000000000e+00 0.000000000000e+00 0.000000000000e+00 0.000000000000e+00 0.000000000000e+00 0.000000000000e+00 
0.000000000000e+00 3.000000000000e+00 0.000000000000e+00 2.981500000000e+02 0.000000000000e+00 0.000000000000e+00 0.000000000000e+00 0.000000000000e+00 0.000000000000e+00 0.000000000000e+00 0.000000000000e+00 0.000000000000e+00 0.000000000000e+00 0.000000000000e+00 0.000000000000e+00 
1.000000000000e+00 3.000000000000e+00 0.000000000000e+00 2.981500000000e+02 0.000000000000e+00 0.000000000000e+00 0.000000000000e+00 0.000000000000e+00 0.000000000000e+00 0.000000000000e+00 0.000000000000e+00 0.000000000000e+00 0.000000000000e+00 0.000000000000e+00 0.000000000000e+00 
2.000000000000e+00 3.000000000000e+00 0.000000000000e+00 2.981500000000e+02 0.000000000000e+00 0.000000000000e+00 0.000000000000e+00 0.000000000000e+00 0.000000000000e+00 0.000000000000e+00 0.000000000000e+00 0.000000000000e+00 0.000000000000e+00 0.000000000000e+00 0.000000000000e+00 
3.000000000000e+00 3.000000000000e+00 0.000000000000e+00 2.981500000000e+02 0.000000000000e+00 0.000000000000e+00 0.000000000000e+00 0.000000000000e+00 0.000000000000e+00 0.000000000000e+00 0.000000000000e+00 0.000000000000e+00 0.000000000000e+00 0.000000000000e+00 0.000000000000e+00 
4.000000000000e+00 3.000000000000e+00 0.000000000000e+00 2.981500000000e+02 0.000000000000e+00 0.000000000000e+00 0.000000000000e+00 0.000000000000e+00 0.000000000000e+00 0.000000000000e+00 0.000000000000e+00 0.000000000000e+00 0.000000000000e+00 0.000000000000e+00 0.000000000000e+00 
5.000000000000e+00 3.000000000000e+00 0.000000000000e+00 2.981500000000e+02 0.000000000000e+00 0.000000000000e+00 0.000000000000e+00 0.000000000000e+00 0.000000000000e+00 0.000000000000e+00 0.000000000000e+00 0.000000000000e+00 0.000000000000e+00 0.000000000000e+00 0.000000000000e+00 
0.000000000000e+00 2.000000000000e+00 0.000000000000e+00 2.981500000000e+02 0.000000000000e+00 0.000000000000e+00 0.000000000000e+00 0.000000000000e+00 0.000000000000e+00 0.000000000000e+00 0.000000000000e+00 0.000000000000e+00 0.000000000000e+00 0.000000000000e+00 0.000000000000e+00 
1.000000000000e+00 2.000000000000e+00 0.000000000000e+00 2.981500000000e+02 0.000000000000e+00 0.000000000000e+00 0.000000000000e+00 0.000000000000e+00 0.000000000000e+00 0.000000000000e+00 0.000000000000e+00 0.000000000000e+00 0.000000000000e+00 0.000000000000e+00 0.000000000000e+00 
2.000000000000e+00 2.000000000000e+00 0.000000000000e+00 2.981500000000e+02 0.000000000000e+00 0.000000000000e+00 0.000000000000e+00 0.000000000000e+00 0.000000000000e+00 0.000000000000e+00 0.000000000000e+00 0.000000000000e+00 0.000000000000e+00 0.000000000000e+00 0.000000000000e+00 
3.000000000000e+00 2.000000000000e+00 0.000000000000e+00 2.981500000000e+02 0.000000000000e+00 0.000000000000e+00 0.000000000000e+00 0.000000000000e+00 0.000000000000e+00 0.000000000000e+00 0.000000000000e+00 0.000000000000e+00 0.000000000000e+00 0.000000000000e+00 0.000000000000e+00 
4.000000000000e+00 2.000000000000e+00 0.000000000000e+00 2.981500000000e+02 0.000000000000e+00 0.000000000000e+00 0.000000000000e+00 0.000000000000e+00 0.000000000000e+00 0.000000000000e+00 0.000000000000e+00 0.000000000000e+00 0.000000000000e+00 0.000000000000e+00 0.000000000000e+00 
5.000000000000e+00 2.000000000000e+00 0.000000000000e+00 2.981500000000e+02 0.000000000000e+00 0.000000000000e+00 0.000000000000e+00 0.000000000000e+00 0.000000000000e+00 0.000000000000e+00 0.000000000000e+00 0.000000000000e+00 0.000000000000e+00 0.000000000000e+00 0.000000000000e+00 
0.000000000000e+00 1.000000000000e+00 0.000000000000e+00 2.981500000000e+02 0.000000000000e+00 0.000000000000e+00 0.000000000000e+00 0.000000000000e+00 0.000000000000e+00 0.000000000000e+00 0.000000000000e+00 0.000000000000e+00 0.000000000000e+00 0.000000000000e+00 0.000000000000e+00 
1.000000000000e+00 1.000000000000e+00 0.000000000000e+00 2.981500000000e+02 0.000000000000e+00 0.000000000000e+00 0.000000000000e+00 0.000000000000e+00 0.000000000000e+00 0.000000000000e+00 0.000000000000e+00 0.000000000000e+00 0.000000000000e+00 0.000000000000e+00 0.000000000000e+00 
2.000000000000e+00 1.000000000000e+00 0.000000000000e+00 2.981500000000e+02 0.000000000000e+00 0.000000000000e+00 0.000000000000e+00 0.000000000000e+00 0.000000000000e+00 0.000000000000e+00 0.000000000000e+00 0.000000000000e+00 0.000000000000e+00 0.000000000000e+00 0.000000000000e+00 
3.000000000000e+00 1.000000000000e+00 0.000000000000e+00 2.981500000000e+02 0.000000000000e+00 0.000000000000e+00 0.000000000000e+00 0.000000000000e+00 0.000000000000e+00 0.000000000000e+00 0.000000000000e+00 0.000000000000e+00 0.000000000000e+00 0.000000000000e+00 0.000000000000e+00 
4.000000000000e+00 1.000000000000e+00 0.000000000000e+00 2.981500000000e+02 0.000000000000e+00 0.000000000000e+00 0.000000000000e+00 0.000000000000e+00 0.000000000000e+00 0.000000000000e+00 0.000000000000e+00 0.000000000000e+00 0.000000000000e+00 0.000000000000e+00 0.000000000000e+00 
5.000000000000e+00 1.000000000000e+00 0.000000000000e+00 2.981500000000e+02 0.000000000000e+00 0.000000000000e+00 0.000000000000e+00 0.000000000000e+00 0.000000000000e+00 0.000000000000e+00 0.000000000000e+00 0.000000000000e+00 0.000000000000e+00 0.000000000000e+00 0.000000000000e+00 
0.000000000000e+00 0.000000000000e+00 0.000000000000e+00 2.981500000000e+02 0.000000000000e+00 0.000000000000e+00 0.000000000000e+00 0.000000000000e+00 0.000000000000e+00 0.000000000000e+00 0.000000000000e+00 0.000000000000e+00 0.000000000000e+00 0.000000000000e+00 0.000000000000e+00 
1.000000000000e+00 0.000000000000e+00 0.000000000000e+00 2.981500000000e+02 0.000000000000e+00 0.000000000000e+00 0.000000000000e+00 0.000000000000e+00 0.000000000000e+00 0.000000000000e+00 0.000000000000e+00 0.000000000000e+00 0.000000000000e+00 0.000000000000e+00 0.000000000000e+00 
2.000000000000e+00 0.000000000000e+00 0.000000000000e+00 2.981500000000e+02 0.000000000000e+00 0.000000000000e+00 0.000000000000e+00 0.000000000000e+00 0.000000000000e+00 0.000000000000e+00 0.000000000000e+00 0.000000000000e+00 0.000000000000e+00 0.000000000000e+00 0.000000000000e+00 
3.000000000000e+00 0.000000000000e+00 0.000000000000e+00 2.981500000000e+02 0.000000000000e+00 0.000000000000e+00 0.000000000000e+00 0.000000000000e+00 0.000000000000e+00 0.000000000000e+00 0.000000000000e+00 0.000000000000e+00 0.000000000000e+00 0.000000000000e+00 0.000000000000e+00 
4.000000000000e+00 0.000000000000e+00 0.000000000000e+00 2.981500000000e+02 0.000000000000e+00 0.000000000000e+00 0.000000000000e+00 0.000000000000e+00 0.000000000000e+00 0.000000000000e+00 0.000000000000e+00 0.000000000000e+00 0.000000000000e+00 0.000000000000e+00 0.000000000000e+00 
5.000000000000e+00 0.000000000000e+00 0.000000000000e+00 2.981500000000e+02 0.000000000000e+00 0.000000000000e+00 0.000000000000e+00 0.000000000000e+00 0.000000000000e+00 0.000000000000e+00 0.000000000000e+00 0.000000000000e+00 0.000000000000e+00 0.000000000000e+00 0.000000000000e+00 
6.000000000000e+00 9.000000000000e+00 0.000000000000e+00 2.981500000000e+02 0.000000000000e+00 0.000000000000e+00 0.000000000000e+00 0.000000000000e+00 0.000000000000e+00 0.000000000000e+00 0.000000000000e+00 0.000000000000e+00 0.000000000000e+00 0.000000000000e+00 0.000000000000e+00 
6.000000000000e+00 1.000000000000e+01 0.000000000000e+00 2.981500000000e+02 0.000000000000e+00 0.000000000000e+00 0.000000000000e+00 0.000000000000e+00 0.000000000000e+00 0.000000000000e+00 0.000000000000e+00 0.000000000000e+00 0.000000000000e+00 0.000000000000e+00 0.000000000000e+00 
7.000000000000e+00 9.000000000000e+00 0.000000000000e+00 2.981500000000e+02 0.000000000000e+00 0.000000000000e+00 0.000000000000e+00 0.000000000000e+00 0.000000000000e+00 0.000000000000e+00 0.000000000000e+00 0.000000000000e+00 0.000000000000e+00 0.000000000000e+00 0.000000000000e+00 
7.000000000000e+00 1.000000000000e+01 0.000000000000e+00 2.981500000000e+02 0.000000000000e+00 0.000000000000e+00 0.000000000000e+00 0.000000000000e+00 0.000000000000e+00 0.000000000000e+00 0.000000000000e+00 0.000000000000e+00 0.000000000000e+00 0.000000000000e+00 0.000000000000e+00 
8.000000000000e+00 9.000000000000e+00 0.000000000000e+00 2.981500000000e+02 0.000000000000e+00 0.000000000000e+00 0.000000000000e+00 0.000000000000e+00 0.000000000000e+00 0.000000000000e+00 0.000000000000e+00 0.000000000000e+00 0.000000000000e+00 0.000000000000e+00 0.000000000000e+00 
8.000000000000e+00 1.000000000000e+01 0.000000000000e+00 2.981500000000e+02 0.000000000000e+00 0.000000000000e+00 0.000000000000e+00 0.000000000000e+00 0.000000000000e+00 0.000000000000e+00 0.000000000000e+00 0.000000000000e+00 0.000000000000e+00 0.000000000000e+00 0.000000000000e+00 
9.000000000000e+00 9.000000000000e+00 0.000000000000e+00 2.981500000000e+02 0.000000000000e+00 0.000000000000e+00 0.000000000000e+00 0.000000000000e+00 0.000000000000e+00 0.000000000000e+00 0.000000000000e+00 0.000000000000e+00 0.000000000000e+00 0.000000000000e+00 0.000000000000e+00 
9.000000000000e+00 1.000000000000e+01 0.000000000000e+00 2.981500000000e+02 0.000000000000e+00 0.000000000000e+00 0.000000000000e+00 0.000000000000e+00 0.000000000000e+00 0.000000000000e+00 0.000000000000e+00 0.000000000000e+00 0.000000000000e+00 0.000000000000e+00 0.000000000000e+00 
1.000000000000e+01 9.000000000000e+00 0.000000000000e+00 2.981500000000e+02 0.000000000000e+00 0.000000000000e+00 0.000000000000e+00 0.000000000000e+00 0.000000000000e+00 0.000000000000e+00 0.000000000000e+00 0.000000000000e+00 0.000000000000e+00 0.000000000000e+00 0.000000000000e+00 
1.000000000000e+01 1.000000000000e+01 0.000000000000e+00 2.981500000000e+02 0.000000000000e+00 0.000000000000e+00 0.000000000000e+00 0.000000000000e+00 0.000000000000e+00 0.000000000000e+00 0.000000000000e+00 0.000000000000e+00 0.000000000000e+00 0.000000000000e+00 0.000000000000e+00 
6.000000000000e+00 8.000000000000e+00 0.000000000000e+00 2.981500000000e+02 0.000000000000e+00 0.000000000000e+00 0.000000000000e+00 0.000000000000e+00 0.000000000000e+00 0.000000000000e+00 0.000000000000e+00 0.000000000000e+00 0.000000000000e+00 0.000000000000e+00 0.000000000000e+00 
7.000000000000e+00 8.000000000000e+00 0.000000000000e+00 2.981500000000e+02 0.000000000000e+00 0.000000000000e+00 0.000000000000e+00 0.000000000000e+00 0.000000000000e+00 0.000000000000e+00 0.000000000000e+00 0.000000000000e+00 0.000000000000e+00 0.000000000000e+00 0.000000000000e+00 
8.000000000000e+00 8.000000000000e+00 0.000000000000e+00 2.981500000000e+02 0.000000000000e+00 0.000000000000e+00 0.000000000000e+00 0.000000000000e+00 0.000000000000e+00 0.000000000000e+00 0.000000000000e+00 0.000000000000e+00 0.000000000000e+00 0.000000000000e+00 0.000000000000e+00 
9.000000000000e+00 8.000000000000e+00 0.000000000000e+00 2.981500000000e+02 0.000000000000e+00 0.000000000000e+00 0.000000000000e+00 0.000000000000e+00 0.000000000000e+00 0.000000000000e+00 0.000000000000e+00 0.000000000000e+00 0.000000000000e+00 0.000000000000e+00 0.000000000000e+00 
1.000000000000e+01 8.000000000000e+00 0.000000000000e+00 2.981500000000e+02 0.000000000000e+00 0.000000000000e+00 0.000000000000e+00 0.000000000000e+00 0.000000000000e+00 0.000000000000e+00 0.000000000000e+00 0.000000000000e+00 0.000000000000e+00 0.000000000000e+00 0.000000000000e+00 
6.000000000000e+00 7.000000000000e+00 0.000000000000e+00 2.981500000000e+02 0.000000000000e+00 0.000000000000e+00 0.000000000000e+00 0.000000000000e+00 0.000000000000e+00 0.000000000000e+00 0.000000000000e+00 0.000000000000e+00 0.000000000000e+00 0.000000000000e+00 0.000000000000e+00 
7.000000000000e+00 7.000000000000e+00 0.000000000000e+00 2.981500000000e+02 0.000000000000e+00 0.000000000000e+00 0.000000000000e+00 0.000000000000e+00 0.000000000000e+00 0.000000000000e+00 0.000000000000e+00 0.000000000000e+00 0.000000000000e+00 0.000000000000e+00 0.000000000000e+00 
8.000000000000e+00 7.000000000000e+00 0.000000000000e+00 2.981500000000e+02 0.000000000000e+00 0.000000000000e+00 0.000000000000e+00 0.000000000000e+00 0.000000000000e+00 0.000000000000e+00 0.000000000000e+00 0.000000000000e+00 0.000000000000e+00 0.000000000000e+00 0.000000000000e+00 
9.000000000000e+00 7.000000000000e+00 0.000000000000e+00 2.981500000000e+02 0.000000000000e+00 0.000000000000e+00 0.000000000000e+00 0.000000000000e+00 0.000000000000e+00 0.000000000000e+00 0.000000000000e+00 0.000000000000e+00 0.000000000000e+00 0.000000000000e+00 0.000000000000e+00 
1.000000000000e+01 7.000000000000e+00 0.000000000000e+00 2.981500000000e+02 0.000000000000e+00 0.000000000000e+00 0.000000000000e+00 0.000000000000e+00 0.000000000000e+00 0.000000000000e+00 0.000000000000e+00 0.000000000000e+00 0.000000000000e+00 0.000000000000e+00 0.000000000000e+00 
6.000000000000e+00 6.000000000000e+00 0.000000000000e+00 2.981500000000e+02 0.000000000000e+00 0.000000000000e+00 0.000000000000e+00 0.000000000000e+00 0.000000000000e+00 0.000000000000e+00 0.000000000000e+00 0.000000000000e+00 0.000000000000e+00 0.000000000000e+00 0.000000000000e+00 
7.000000000000e+00 6.000000000000e+00 0.000000000000e+00 2.981500000000e+02 0.000000000000e+00 0.000000000000e+00 0.000000000000e+00 0.000000000000e+00 0.000000000000e+00 0.000000000000e+00 0.000000000000e+00 0.000000000000e+00 0.000000000000e+00 0.000000000000e+00 0.000000000000e+00 
8.000000000000e+00 6.000000000000e+00 0.000000000000e+00 2.981500000000e+02 0.000000000000e+00 0.000000000000e+00 0.000000000000e+00 0.000000000000e+00 0.000000000000e+00 0.000000000000e+00 0.000000000000e+00 0.000000000000e+00 0.000000000000e+00 0.000000000000e+00 0.000000000000e+00 
9.000000000000e+00 6.000000000000e+00 0.000000000000e+00 2.981500000000e+02 0.000000000000e+00 0.000000000000e+00 0.000000000000e+00 0.000000000000e+00 0.000000000000e+00 0.000000000000e+00 0.000000000000e+00 0.000000000000e+00 0.000000000000e+00 0.000000000000e+00 0.000000000000e+00 
1.000000000000e+01 6.000000000000e+00 0.000000000000e+00 2.981500000000e+02 0.000000000000e+00 0.000000000000e+00 0.000000000000e+00 0.000000000000e+00 0.000000000000e+00 0.000000000000e+00 0.000000000000e+00 0.000000000000e+00 0.000000000000e+00 0.000000000000e+00 0.000000000000e+00 
6.000000000000e+00 5.000000000000e+00 0.000000000000e+00 2.981500000000e+02 0.000000000000e+00 0.000000000000e+00 0.000000000000e+00 0.000000000000e+00 0.000000000000e+00 0.000000000000e+00 0.000000000000e+00 0.000000000000e+00 0.000000000000e+00 0.000000000000e+00 0.000000000000e+00 
7.000000000000e+00 5.000000000000e+00 0.000000000000e+00 2.981500000000e+02 0.000000000000e+00 0.000000000000e+00 0.000000000000e+00 0.000000000000e+00 0.000000000000e+00 0.000000000000e+00 0.000000000000e+00 0.000000000000e+00 0.000000000000e+00 0.000000000000e+00 0.000000000000e+00 
8.000000000000e+00 5.000000000000e+00 0.000000000000e+00 2.981500000000e+02 0.000000000000e+00 0.000000000000e+00 0.000000000000e+00 0.000000000000e+00 0.000000000000e+00 0.000000000000e+00 0.000000000000e+00 0.000000000000e+00 0.000000000000e+00 0.000000000000e+00 0.000000000000e+00 
9.000000000000e+00 5.000000000000e+00 0.000000000000e+00 2.981500000000e+02 0.000000000000e+00 0.000000000000e+00 0.000000000000e+00 0.000000000000e+00 0.000000000000e+00 0.000000000000e+00 0.000000000000e+00 0.000000000000e+00 0.000000000000e+00 0.000000000000e+00 0.000000000000e+00 
1.000000000000e+01 5.000000000000e+00 0.000000000000e+00 2.981500000000e+02 0.000000000000e+00 0.000000000000e+00 0.000000000000e+00 0.000000000000e+00 0.000000000000e+00 0.000000000000e+00 0.000000000000e+00 0.000000000000e+00 0.000000000000e+00 0.000000000000e+00 0.000000000000e+00 
6.000000000000e+00 4.000000000000e+00 0.000000000000e+00 2.981500000000e+02 0.000000000000e+00 0.000000000000e+00 0.000000000000e+00 0.000000000000e+00 0.000000000000e+00 0.000000000000e+00 0.000000000000e+00 0.000000000000e+00 0.000000000000e+00 0.000000000000e+00 0.000000000000e+00 
7.000000000000e+00 4.000000000000e+00 0.000000000000e+00 2.981500000000e+02 0.000000000000e+00 0.000000000000e+00 0.000000000000e+00 0.000000000000e+00 0.000000000000e+00 0.000000000000e+00 0.000000000000e+00 0.000000000000e+00 0.000000000000e+00 0.000000000000e+00 0.000000000000e+00 
8.000000000000e+00 4.000000000000e+00 0.000000000000e+00 2.981500000000e+02 0.000000000000e+00 0.000000000000e+00 0.000000000000e+00 0.000000000000e+00 0.000000000000e+00 0.000000000000e+00 0.000000000000e+00 0.000000000000e+00 0.000000000000e+00 0.000000000000e+00 0.000000000000e+00 
9.000000000000e+00 4.000000000000e+00 0.000000000000e+00 2.981500000000e+02 0.000000000000e+00 0.000000000000e+00 0.000000000000e+00 0.000000000000e+00 0.000000000000e+00 0.000000000000e+00 0.000000000000e+00 0.000000000000e+00 0.000000000000e+00 0.000000000000e+00 0.000000000000e+00 
1.000000000000e+01 4.000000000000e+00 0.000000000000e+00 2.981500000000e+02 0.000000000000e+00 0.000000000000e+00 0.000000000000e+00 0.000000000000e+00 0.000000000000e+00 0.000000000000e+00 0.000000000000e+00 0.000000000000e+00 0.000000000000e+00 0.000000000000e+00 0.000000000000e+00 
6.000000000000e+00 3.000000000000e+00 0.000000000000e+00 2.981500000000e+02 0.000000000000e+00 0.000000000000e+00 0.000000000000e+00 0.000000000000e+00 0.000000000000e+00 0.000000000000e+00 0.000000000000e+00 0.000000000000e+00 0.000000000000e+00 0.000000000000e+00 0.000000000000e+00 
7.000000000000e+00 3.000000000000e+00 0.000000000000e+00 2.981500000000e+02 0.000000000000e+00 0.000000000000e+00 0.000000000000e+00 0.000000000000e+00 0.000000000000e+00 0.000000000000e+00 0.000000000000e+00 0.000000000000e+00 0.000000000000e+00 0.000000000000e+00 0.000000000000e+00 
8.000000000000e+00 3.000000000000e+00 0.000000000000e+00 2.981500000000e+02 0.000000000000e+00 0.000000000000e+00 0.000000000000e+00 0.000000000000e+00 0.000000000000e+00 0.000000000000e+00 0.000000000000e+00 0.000000000000e+00 0.000000000000e+00 0.000000000000e+00 0.000000000000e+00 
9.000000000000e+00 3.000000000000e+00 0.000000000000e+00 2.981500000000e+02 0.000000000000e+00 0.000000000000e+00 0.000000000000e+00 0.000000000000e+00 0.000000000000e+00 0.000000000000e+00 0.000000000000e+00 0.000000000000e+00 0.000000000000e+00 0.000000000000e+00 0.000000000000e+00 
1.000000000000e+01 3.000000000000e+00 0.000000000000e+00 2.981500000000e+02 0.000000000000e+00 0.000000000000e+00 0.000000000000e+00 0.000000000000e+00 0.000000000000e+00 0.000000000000e+00 0.000000000000e+00 0.000000000000e+00 0.000000000000e+00 0.000000000000e+00 0.000000000000e+00 
6.000000000000e+00 2.000000000000e+00 0.000000000000e+00 2.981500000000e+02 0.000000000000e+00 0.000000000000e+00 0.000000000000e+00 0.000000000000e+00 0.000000000000e+00 0.000000000000e+00 0.000000000000e+00 0.000000000000e+00 0.000000000000e+00 0.000000000000e+00 0.000000000000e+00 
7.000000000000e+00 2.000000000000e+00 0.000000000000e+00 2.981500000000e+02 0.000000000000e+00 0.000000000000e+00 0.000000000000e+00 0.000000000000e+00 0.000000000000e+00 0.000000000000e+00 0.000000000000e+00 0.000000000000e+00 0.000000000000e+00 0.000000000000e+00 0.000000000000e+00 
8.000000000000e+00 2.000000000000e+00 0.000000000000e+00 2.981500000000e+02 0.000000000000e+00 0.000000000000e+00 0.000000000000e+00 0.000000000000e+00 0.000000000000e+00 0.000000000000e+00 0.000000000000e+00 0.000000000000e+00 0.000000000000e+00 0.000000000000e+00 0.000000000000e+00 
9.000000000000e+00 2.000000000000e+00 0.000000000000e+00 2.981500000000e+02 0.000000000000e+00 0.000000000000e+00 0.000000000000e+00 0.000000000000e+00 0.000000000000e+00 0.000000000000e+00 0.000000000000e+00 0.000000000000e+00 0.000000000000e+00 0.000000000000e+00 0.000000000000e+00 
1.000000000000e+01 2.000000000000e+00 0.000000000000e+00 2.981500000000e+02 0.000000000000e+00 0.000000000000e+00 0.000000000000e+00 0.000000000000e+00 0.000000000000e+00 0.000000000000e+00 0.000000000000e+00 0.000000000000e+00 0.000000000000e+00 0.000000000000e+00 0.000000000000e+00 
6.000000000000e+00 1.000000000000e+00 0.000000000000e+00 2.981500000000e+02 0.000000000000e+00 0.000000000000e+00 0.000000000000e+00 0.000000000000e+00 0.000000000000e+00 0.000000000000e+00 0.000000000000e+00 0.000000000000e+00 0.000000000000e+00 0.000000000000e+00 0.000000000000e+00 
7.000000000000e+00 1.000000000000e+00 0.000000000000e+00 2.981500000000e+02 0.000000000000e+00 0.000000000000e+00 0.000000000000e+00 0.000000000000e+00 0.000000000000e+00 0.000000000000e+00 0.000000000000e+00 0.000000000000e+00 0.000000000000e+00 0.000000000000e+00 0.000000000000e+00 
8.000000000000e+00 1.000000000000e+00 0.000000000000e+00 2.981500000000e+02 0.000000000000e+00 0.000000000000e+00 0.000000000000e+00 0.000000000000e+00 0.000000000000e+00 0.000000000000e+00 0.000000000000e+00 0.000000000000e+00 0.000000000000e+00 0.000000000000e+00 0.000000000000e+00 
9.000000000000e+00 1.000000000000e+00 0.000000000000e+00 2.981500000000e+02 0.000000000000e+00 0.000000000000e+00 0.000000000000e+00 0.000000000000e+00 0.000000000000e+00 0.000000000000e+00 0.000000000000e+00 0.000000000000e+00 0.000000000000e+00 0.000000000000e+00 0.000000000000e+00 
1.000000000000e+01 1.000000000000e+00 0.000000000000e+00 2.981500000000e+02 0.000000000000e+00 0.000000000000e+00 0.000000000000e+00 0.000000000000e+00 0.000000000000e+00 0.000000000000e+00 0.000000000000e+00 0.000000000000e+00 0.000000000000e+00 0.000000000000e+00 0.000000000000e+00 
6.000000000000e+00 0.000000000000e+00 0.000000000000e+00 2.981500000000e+02 0.000000000000e+00 0.000000000000e+00 0.000000000000e+00 0.000000000000e+00 0.000000000000e+00 0.000000000000e+00 0.000000000000e+00 0.000000000000e+00 0.000000000000e+00 0.000000000000e+00 0.000000000000e+00 
7.000000000000e+00 0.000000000000e+00 0.000000000000e+00 2.981500000000e+02 0.000000000000e+00 0.000000000000e+00 0.000000000000e+00 0.000000000000e+00 0.000000000000e+00 0.000000000000e+00 0.000000000000e+00 0.000000000000e+00 0.000000000000e+00 0.000000000000e+00 0.000000000000e+00 
8.000000000000e+00 0.000000000000e+00 0.000000000000e+00 2.981500000000e+02 0.000000000000e+00 0.000000000000e+00 0.000000000000e+00 0.000000000000e+00 0.000000000000e+00 0.000000000000e+00 0.000000000000e+00 0.000000000000e+00 0.000000000000e+00 0.000000000000e+00 0.000000000000e+00 
9.000000000000e+00 0.000000000000e+00 0.000000000000e+00 2.981500000000e+02 0.000000000000e+00 0.000000000000e+00 0.000000000000e+00 0.000000000000e+00 0.000000000000e+00 0.000000000000e+00 0.000000000000e+00 0.000000000000e+00 0.000000000000e+00 0.000000000000e+00 0.000000000000e+00 
1.000000000000e+01 0.000000000000e+00 0.000000000000e+00 2.981500000000e+02 0.000000000000e+00 0.000000000000e+00 0.000000000000e+00 0.000000000000e+00 0.000000000000e+00 0.000000000000e+00 0.000000000000e+00 0.000000000000e+00 0.000000000000e+00 0.000000000000e+00 0.000000000000e+00 
1  2  3  4  
4  3  5  6  
6  5  7  8  
8  7  9  10  
10  9  11  12  
2  13  14  3  
3  14  15  5  
5  15  16  7  
7  16  17  9  
9  17  18  11  
13  19  20  14  
14  20  21  15  
15  21  22  16  
16  22  23  17  
17  23  24  18  
19  25  26  20  
20  26  27  21  
21  27  28  22  
22  28  29  23  
23  29  30  24  
25  31  32  26  
26  32  33  27  
27  33  34  28  
28  34  35  29  
29  35  36  30  
31  37  38  32  
32  38  39  33  
33  39  40  34  
34  40  41  35  
35  41  42  36  
37  43  44  38  
38  44  45  39  
39  45  46  40  
40  46  47  41  
41  47  48  42  
43  49  50  44  
44  50  51  45  
45  51  52  46  
46  52  53  47  
47  53  54  48  
49  55  56  50  
50  56  57  51  
51  57  58  52  
52  58  59  53  
53  59  60  54  
55  61  62  56  
56  62  63  57  
57  63  64  58  
58  64  65  59  
59  65  66  60  
12  11  67  68  
68  67  69  70  
70  69  71  72  
72  71  73  74  
74  73  75  76  
11  18  77  67  
67  77  78  69  
69  78  79  71  
71  79  80  73  
73  80  81  75  
18  24  82  77  
77  82  83  78  
78  83  84  79  
79  84  85  80  
80  85  86  81  
24  30  87  82  
82  87  88  83  
83  88  89  84  
84  89  90  85  
85  90  91  86  
30  36  92  87  
87  92  93  88  
88  93  94  89  
89  94  95  90  
90  95  96  91  
36  42  97  92  
92  97  98  93  
93  98  99  94  
94  99  100  95  
95  100  101  96  
42  48  102  97  
97  102  103  98  
98  103  104  99  
99  104  105  100  
100  105  106  101  
48  54  107  102  
102  107  108  103  
103  108  109  104  
104  109  110  105  
105  110  111  106  
54  60  112  107  
107  112  113  108  
108  113  114  109  
109  114  115  110  
110  115  116  111  
60  66  117  112  
112  117  118  113  
113  118  119  114  
114  119  120  115  
115  120  121  116  
VARIABLES  = "X","Y","Z", "TEMPERATURE1", "DISPLACEMENT_X1", "DISPLACEMENT_Y1", "STRESS_XX", "STRESS_XY", "STRESS_YY", "STRESS_ZZ", "STRAIN_XX", "STRAIN_XY", "STRAIN_YY", "STRAIN_ZZ", "STRAIN_PLS"
ZONE T="1.000000000000e-01s", N=121, E=100, F=FEPOINT, ET=QUADRILATERAL
STRANDID=1, SOLUTIONTIME=1.000000000000e-01
0.000000000000e+00 1.000000000000e+01 0.000000000000e+00 3.080000000000e+02 0.000000000000e+00 0.000000000000e+00 -2.345499930201e+05 -8.414844515582e-07 -2.110681629972e+06 -2.110712538207e+06 9.530905729550e-05 -8.549482027832e-17 1.570138354653e-09 0.000000000000e+00 0.000000000000e+00 
0.000000000000e+00 9.000000000000e+00 0.000000000000e+00 3.080000000000e+02 0.000000000000e+00 -1.413124181465e-09 -2.345536213599e+05 -2.144461713460e-06 -2.110691439990e+06 -2.110716166564e+06 9.530905729635e-05 -2.178773100875e-16 1.256109942084e-09 0.000000000000e+00 0.000000000000e+00 
1.000000000000e+00 9.000000000000e+00 0.000000000000e+00 2.966146691433e+02 3.588698803055e-05 -1.413124344191e-09 -2.345536213557e+05 -5.022637169605e-06 2.287601059087e+05 2.287353793380e+05 -2.353508123524e-05 -5.102999364318e-16 1.256109789459e-09 0.000000000000e+00 0.000000000000e+00 
1.000000000000e+00 1.000000000000e+01 0.000000000000e+00 2.966146691435e+02 3.588698803049e-05 0.000000000000e+00 -2.345499930360e+05 -7.710960761325e-07 2.287699158946e+05 2.287390076463e+05 -2.353508123466e-05 -7.834336133507e-17 1.570139011084e-09 0.000000000000e+00 0.000000000000e+00 
2.000000000000e+00 9.000000000000e+00 0.000000000000e+00 2.983893170583e+02 2.161411029687e-05 -1.413123890782e-09 -2.345536213713e+05 3.370054943799e-05 -1.358935752550e+05 -1.359183018402e+05 -5.010674232180e-06 3.423975822899e-15 1.256110529081e-09 0.000000000000e+00 0.000000000000e+00 
2.000000000000e+00 1.000000000000e+01 0.000000000000e+00 2.983893170585e+02 2.161411029792e-05 0.000000000000e+00 -2.345499930055e+05 7.659737601795e-06 -1.358837653007e+05 -1.359146735180e+05 -5.010674229969e-06 7.782293403424e-16 1.570137434438e-09 0.000000000000e+00 0.000000000000e+00 
3.000000000000e+00 9.000000000000e+00 0.000000000000e+00 2.981126759030e+02 1.515959660993e-05 -1.413122440376e-09 -2.345536213793e+05 5.001772121392e-06 -7.904950223557e+04 -7.907422882814e+04 -7.898353141600e-06 5.081800475335e-16 1.256110902774e-09 0.000000000000e+00 0.000000000000e+00 
3.000000000000e+00 1.000000000000e+01 0.000000000000e+00 2.981126759021e+02 1.515959660996e-05 0.000000000000e+00 -2.345499929166e+05 -1.390183140083e-06 -7.903969213188e+04 -7.907060027233e+04 -7.898353146329e-06 -1.412426070325e-16 1.570133534513e-09 0.000000000000e+00 0.000000000000e+00 
4.000000000000e+00 9.000000000000e+00 0.000000000000e+00 2.981559555793e+02 7.487127807159e-06 -1.413123552406e-09 -2.345536213507e+05 -3.021718266766e-05 -8.794258643857e+04 -8.796731300436e+04 -7.446584463996e-06 -3.070065759034e-15 1.256109542078e-09 0.000000000000e+00 0.000000000000e+00 
4.000000000000e+00 1.000000000000e+01 0.000000000000e+00 2.981559555797e+02 7.487127806309e-06 0.000000000000e+00 -2.345499930111e+05 -5.453052359464e-06 -8.793277649649e+04 -8.796368471847e+04 -7.446584461265e-06 -5.540301197215e-16 1.570137676508e-09 0.000000000000e+00 0.000000000000e+00 
5.000000000000e+00 9.000000000000e+00 0.000000000000e+00 2.981481874324e+02 4.639842667074e-16 -1.413123973062e-09 -2.345536213687e+05 4.898026835993e-06 -8.634639184532e+04 -8.637111842768e+04 -7.527671149403e-06 4.976395265369e-16 1.256110384211e-09 0.000000000000e+00 0.000000000000e+00 
5.000000000000e+00 1.000000000000e+01 0.000000000000e+00 2.981481874323e+02 5.862679251999e-16 0.000000000000e+00 -2.345499930084e+05 1.781113123534e-06 -8.633658183934e+04 -8.636749006112e+04 -7.527671149720e-06 1.809610933511e-16 1.570137666495e-09 0.000000000000e+00 0.000000000000e+00 
0.000000000000e+00 8.000000000000e+00 0.000000000000e+00 3.080000000000e+02 0.000000000000e+00 -2.512220097997e-09 -2.345572497083e+05 4.173575057344e-07 -2.110701249999e+06 -2.110719794920e+06 9.530905729676e-05 4.240352258262e-17 9.420819982148e-10 0.000000000000e+00 0.000000000000e+00 
1.000000000000e+00 8.000000000000e+00 0.000000000000e+00 2.966146691432e+02 3.588698803069e-05 -2.512220027005e-09 -2.345572496953e+05 2.076398631750e-06 2.287502959091e+05 2.287317509986e+05 -2.353508123525e-05 2.109621009858e-16 9.420814529964e-10 0.000000000000e+00 0.000000000000e+00 
2.000000000000e+00 8.000000000000e+00 0.000000000000e+00 2.983893170580e+02 2.161411029610e-05 -2.512219951983e-09 -2.345572496899e+05 -1.373657625768e-06 -1.359033852093e+05 -1.359219301175e+05 -5.010674234278e-06 -1.395636147780e-16 9.420813362718e-10 0.000000000000e+00 0.000000000000e+00 
3.000000000000e+00 8.000000000000e+00 0.000000000000e+00 2.981126759035e+02 1.515959660975e-05 -2.512220071040e-09 -2.345572497703e+05 -4.186222805585e-06 -7.905931230530e+04 -7.907785728378e+04 -7.898353138314e-06 -4.253202370474e-16 9.420849071015e-10 0.000000000000e+00 0.000000000000e+00 
4.000000000000e+00 8.000000000000e+00 0.000000000000e+00 2.981559555794e+02 7.487127807965e-06 -2.512220222968e-09 -2.345572497395e+05 -4.906942220999e-07 -8.795239642210e+04 -8.797094137575e+04 -7.446584464876e-06 -4.985453296535e-17 9.420836455549e-10 0.000000000000e+00 0.000000000000e+00 
5.000000000000e+00 8.000000000000e+00 0.000000000000e+00 2.981481874322e+02 3.576712209762e-16 -2.512220196969e-09 -2.345572497038e+05 1.560994294708e-06 -8.635620181658e+04 -8.637474673729e+04 -7.527671150697e-06 1.585970203424e-16 9.420819716721e-10 0.000000000000e+00 0.000000000000e+00 
0.000000000000e+00 7.000000000000e+00 0.000000000000e+00 3.080000000000e+02 0.000000000000e+00 -3.297288587611e-09 -2.345608780722e+05 5.650816047387e-07 -2.110711059989e+06 -2.110723423276e+06 9.530905729634e-05 5.741229104145e-17 6.280549694743e-10 0.000000000000e+00 0.000000000000e+00 
1.000000000000e+00 7.000000000000e+00 0.000000000000e+00 2.966146691433e+02 3.588698803049e-05 -3.297288494261e-09 -2.345608780833e+05 3.183275995185e-06 2.287404859111e+05 2.287281226146e+05 -2.353508123545e-05 3.234208411108e-16 6.280554632137e-10 0.000000000000e+00 0.000000000000e+00 
2.000000000000e+00 7.000000000000e+00 0.000000000000e+00 2.983893170584e+02 2.161411029666e-05 -3.297288599614e-09 -2.345608780939e+05 -1.265293609034e-05 -1.359131952588e+05 -1.359255585649e+05 -5.010674232074e-06 -1.285538306778e-15 6.280559491416e-10 0.000000000000e+00 0.000000000000e+00 
3.000000000000e+00 7.000000000000e+00 0.000000000000e+00 2.981126759029e+02 1.515959661025e-05 -3.297289321367e-09 -2.345608780447e+05 -9.604234469106e-06 -7.906912225062e+04 -7.908148551074e+04 -7.898353140726e-06 -9.757902220611e-16 6.280536144460e-10 0.000000000000e+00 0.000000000000e+00 
4.000000000000e+00 7.000000000000e+00 0.000000000000e+00 2.981559555792e+02 7.487127807480e-06 -3.297289198890e-09 -2.345608780608e+05 1.112758920073e-05 -8.796220642003e+04 -8.797456969533e+04 -7.446584464968e-06 1.130563062794e-15 6.280543853771e-10 0.000000000000e+00 0.000000000000e+00 
5.000000000000e+00 7.000000000000e+00 0.000000000000e+00 2.981481874324e+02 3.207245284933e-16 -3.297288870402e-09 -2.345608780803e+05 2.405056108552e-08 -8.636601184982e+04 -8.637837514276e+04 -7.527671149229e-06 2.443537006288e-18 6.280552810642e-10 0.000000000000e+00 0.000000000000e+00 
0.000000000000e+00 6.000000000000e+00 0.000000000000e+00 3.080000000000e+02 0.000000000000e+00 -3.768329821510e-09 -2.345645064293e+05 1.350608961864e-07 -2.110720869989e+06 -2.110727051632e+06 9.530905729631e-05 1.372218705254e-17 3.140274581505e-10 0.000000000000e+00 0.000000000000e+00 
1.000000000000e+00 6.000000000000e+00 0.000000000000e+00 2.966146691433e+02 3.588698803056e-05 -3.768329830534e-09 -2.345645064249e+05 -8.012122654954e-07 2.287306759057e+05 2.287244942675e+05 -2.353508123517e-05 -8.140316617433e-17 3.140272238596e-10 0.000000000000e+00 0.000000000000e+00 
2.000000000000e+00 6.000000000000e+00 0.000000000000e+00 2.983893170582e+02 2.161411029690e-05 -3.768329933992e-09 -2.345645064170e+05 -4.059453134828e-06 -1.359230052554e+05 -1.359291868861e+05 -5.010674232166e-06 -4.124404384985e-16 3.140268395187e-10 0.000000000000e+00 0.000000000000e+00 
3.000000000000e+00 6.000000000000e+00 0.000000000000e+00 2.981126759030e+02 1.515959661036e-05 -3.768330112975e-09 -2.345645064372e+05 7.531808410791e-08 -7.907893224917e+04 -7.908511389953e+04 -7.898353140914e-06 7.652317345364e-18 3.140278384000e-10 0.000000000000e+00 0.000000000000e+00 
4.000000000000e+00 6.000000000000e+00 0.000000000000e+00 2.981559555793e+02 7.487127807347e-06 -3.768330028261e-09 -2.345645064238e+05 1.356867134438e-06 -8.797201641778e+04 -8.797819805556e+04 -7.446584465106e-06 1.378577008589e-16 3.140271989886e-10 0.000000000000e+00 0.000000000000e+00 
5.000000000000e+00 6.000000000000e+00 0.000000000000e+00 2.981481874324e+02 3.407294344329e-16 -3.768330084274e-09 -2.345645064257e+05 -2.233218177410e-06 -8.637582185468e+04 -8.638200349372e+04 -7.527671148942e-06 -2.268949668248e-16 3.140272634182e-10 0.000000000000e+00 0.000000000000e+00 
0.000000000000e+00 5.000000000000e+00 0.000000000000e+00 3.080000000000e+02 0.000000000000e+00 -3.925343562661e-09 -2.345681347872e+05 3.433431266017e-07 -2.110730679987e+06 -2.110730679988e+06 9.530905729622e-05 3.488366166273e-17 4.577193088222e-17 0.000000000000e+00 0.000000000000e+00 
1.000000000000e+00 5.000000000000e+00 0.000000000000e+00 2.966146691433e+02 3.588698803051e-05 -3.925343543748e-09 -2.345681347908e+05 5.999804577232e-07 2.287208659072e+05 2.287208659031e+05 -2.353508123525e-05 6.095801450468e-17 2.085327302791e-16 0.000000000000e+00 0.000000000000e+00 
2.000000000000e+00 5.000000000000e+00 0.000000000000e+00 2.983893170584e+02 2.161411029711e-05 -3.925343570271e-09 -2.345681347948e+05 -1.840617350042e-06 -1.359328152707e+05 -1.359328152783e+05 -5.010674231440e-06 -1.870067227643e-16 3.837251603870e-16 0.000000000000e+00 0.000000000000e+00 
3.000000000000e+00 5.000000000000e+00 0.000000000000e+00 2.981126759028e+02 1.515959661041e-05 -3.925343678072e-09 -2.345681347715e+05 -1.210274712162e-06 -7.908874222559e+04 -7.908874221206e+04 -7.898353142018e-06 -1.229639107557e-16 -6.875087371359e-16 0.000000000000e+00 0.000000000000e+00 
4.000000000000e+00 5.000000000000e+00 0.000000000000e+00 2.981559555794e+02 7.487127807200e-06 -3.925343662479e-09 -2.345681347898e+05 1.708746588422e-06 -8.798182643242e+04 -8.798182643466e+04 -7.446584464440e-06 1.736086533837e-16 1.136045071183e-16 0.000000000000e+00 0.000000000000e+00 
5.000000000000e+00 5.000000000000e+00 0.000000000000e+00 2.981481874324e+02 4.514424680445e-16 -3.925343641518e-09 -2.345681347822e+05 -1.046773667484e-06 -8.638563185331e+04 -8.638563184933e+04 -7.527671148988e-06 -1.063522046164e-16 -2.022857351492e-16 0.000000000000e+00 0.000000000000e+00 
0.000000000000e+00 4.000000000000e+00 0.000000000000e+00 3.080000000000e+02 0.000000000000e+00 -3.768329858518e-09 -2.345717631433e+05 3.474122872711e-08 -2.110740489988e+06 -2.110734308345e+06 9.530905729623e-05 3.529708838674e-18 -3.140274744536e-10 0.000000000000e+00 0.000000000000e+00 
1.000000000000e+00 4.000000000000e+00 0.000000000000e+00 2.966146691433e+02 3.588698803055e-05 -3.768329878675e-09 -2.345717631426e+05 -1.147112435730e-06 2.287110559044e+05 2.287172375486e+05 -2.353508123511e-05 -1.165466234701e-16 -3.140275262522e-10 0.000000000000e+00 0.000000000000e+00 
2.000000000000e+00 4.000000000000e+00 0.000000000000e+00 2.983893170583e+02 2.161411029705e-05 -3.768329899615e-09 -2.345717631384e+05 1.918171706602e-06 -1.359426252595e+05 -1.359364436121e+05 -5.010674231934e-06 1.948862453908e-16 -3.140276876428e-10 0.000000000000e+00 0.000000000000e+00 
3.000000000000e+00 4.000000000000e+00 0.000000000000e+00 2.981126759030e+02 1.515959661042e-05 -3.768329797910e-09 -2.345717631509e+05 5.249175275161e-07 -7.909855224237e+04 -7.909237060596e+04 -7.898353141285e-06 5.333162079564e-17 -3.140271295054e-10 0.000000000000e+00 0.000000000000e+00 
4.000000000000e+00 4.000000000000e+00 0.000000000000e+00 2.981559555793e+02 7.487127807229e-06 -3.768329867429e-09 -2.345717631385e+05 -1.509028643390e-06 -8.799163641794e+04 -8.798545477026e+04 -7.446584465105e-06 -1.533173101685e-16 -3.140277020959e-10 0.000000000000e+00 0.000000000000e+00 
5.000000000000e+00 4.000000000000e+00 0.000000000000e+00 2.981481874325e+02 4.583885838945e-16 -3.768329877486e-09 -2.345717631469e+05 -4.197254488191e-07 -8.639544186444e+04 -8.638926022456e+04 -7.527671148455e-06 -4.264410560002e-17 -3.140273057435e-10 0.000000000000e+00 0.000000000000e+00 
0.000000000000e+00 3.000000000000e+00 0.000000000000e+00 3.080000000000e+02 0.000000000000e+00 -3.297288629037e-09 -2.345753914995e+05 5.292479636486e-08 -2.110750299988e+06 -2.110737936701e+06 9.530905729622e-05 5.377159310670e-18 -6.280549751293e-10 0.000000000000e+00 0.000000000000e+00 
1.000000000000e+00 3.000000000000e+00 0.000000000000e+00 2.966146691433e+02 3.588698803054e-05 -3.297288635939e-09 -2.345753914996e+05 6.114300406133e-08 2.287012459057e+05 2.287136091924e+05 -2.353508123515e-05 6.212129212631e-18 -6.280549660833e-10 0.000000000000e+00 0.000000000000e+00 
2.000000000000e+00 3.000000000000e+00 0.000000000000e+00 2.983893170583e+02 2.161411029705e-05 -3.297288622044e-09 -2.345753915004e+05 -2.066454386284e-07 -1.359524352623e+05 -1.359400719768e+05 -5.010674231798e-06 -2.099517656464e-17 -6.280549044051e-10 0.000000000000e+00 0.000000000000e+00 
3.000000000000e+00 3.000000000000e+00 0.000000000000e+00 2.981126759029e+02 1.515959661042e-05 -3.297288617589e-09 -2.345753914952e+05 -5.445993973938e-07 -7.910836223726e+04 -7.909599894622e+04 -7.898353141490e-06 -5.533129877521e-17 -6.280551848405e-10 0.000000000000e+00 0.000000000000e+00 
4.000000000000e+00 3.000000000000e+00 0.000000000000e+00 2.981559555793e+02 7.487127807260e-06 -3.297288605995e-09 -2.345753915021e+05 -6.678901385646e-09 -8.800144642334e+04 -8.798908313955e+04 -7.446584464819e-06 -6.785763807816e-19 -6.280548165933e-10 0.000000000000e+00 0.000000000000e+00 
5.000000000000e+00 3.000000000000e+00 0.000000000000e+00 2.981481874324e+02 5.362822353985e-16 -3.297288620021e-09 -2.345753914944e+05 -4.487836313203e-07 -8.640525186064e+04 -8.639288856877e+04 -7.527671148624e-06 -4.559641694215e-17 -6.280552270096e-10 0.000000000000e+00 0.000000000000e+00 
0.000000000000e+00 2.000000000000e+00 0.000000000000e+00 3.080000000000e+02 0.000000000000e+00 -2.512219911858e-09 -2.345790198555e+05 -8.982272399032e-08 -2.110760109987e+06 -2.110741565057e+06 9.530905729622e-05 -9.125988757416e-18 -9.420824631217e-10 0.000000000000e+00 0.000000000000e+00 
1.000000000000e+00 2.000000000000e+00 0.000000000000e+00 2.966146691433e+02 3.588698803054e-05 -2.512219932452e-09 -2.345790198561e+05 6.788109647014e-08 2.286914359064e+05 2.287099808360e+05 -2.353508123516e-05 6.896719401366e-18 -9.420824244933e-10 0.000000000000e+00 0.000000000000e+00 
2.000000000000e+00 2.000000000000e+00 0.000000000000e+00 2.983893170583e+02 2.161411029702e-05 -2.512219893944e-09 -2.345790198544e+05 1.799991327280e-06 -1.359622452611e+05 -1.359437003293e+05 -5.010674231876e-06 1.828791188517e-16 -9.420825370606e-10 0.000000000000e+00 0.000000000000e+00 
3.000000000000e+00 2.000000000000e+00 0.000000000000e+00 2.981126759030e+02 1.515959661039e-05 -2.512219743505e-09 -2.345790198540e+05 4.651324979687e-06 -7.911817224074e+04 -7.909962730833e+04 -7.898353141320e-06 4.725746179362e-16 -9.420825663656e-10 0.000000000000e+00 0.000000000000e+00 
4.000000000000e+00 2.000000000000e+00 0.000000000000e+00 2.981559555792e+02 7.487127807284e-06 -2.512219581118e-09 -2.345790198379e+05 -1.182746700260e-06 -8.801125641962e+04 -8.799271147278e+04 -7.446584464950e-06 -1.201670647464e-16 -9.420832995062e-10 0.000000000000e+00 0.000000000000e+00 
5.000000000000e+00 2.000000000000e+00 0.000000000000e+00 2.981481874325e+02 5.994719392760e-16 -2.512219789289e-09 -2.345790198576e+05 -4.626510756561e-06 -8.641506186449e+04 -8.639651693530e+04 -7.527671148452e-06 -4.700534928666e-16 -9.420824031006e-10 0.000000000000e+00 0.000000000000e+00 
0.000000000000e+00 1.000000000000e+00 0.000000000000e+00 3.080000000000e+02 0.000000000000e+00 -1.413123669534e-09 -2.345826482107e+05 5.617360818448e-07 -2.110769919988e+06 -2.110745193413e+06 9.530905729628e-05 5.707238591543e-17 -1.256110032423e-09 0.000000000000e+00 0.000000000000e+00 
1.000000000000e+00 1.000000000000e+00 0.000000000000e+00 2.966146691433e+02 3.588698803056e-05 -1.413123709557e-09 -2.345826482092e+05 -3.523450524503e-06 2.286816259075e+05 2.287063524833e+05 -2.353508123518e-05 -3.579825732895e-16 -1.256110054375e-09 0.000000000000e+00 0.000000000000e+00 
2.000000000000e+00 1.000000000000e+00 0.000000000000e+00 2.983893170584e+02 2.161411029695e-05 -1.413123845974e-09 -2.345826482214e+05 6.141140033438e-07 -1.359720552585e+05 -1.359473286937e+05 -5.010674232010e-06 6.239398273973e-17 -1.256109491993e-09 0.000000000000e+00 0.000000000000e+00 
3.000000000000e+00 1.000000000000e+00 0.000000000000e+00 2.981126759029e+02 1.515959661007e-05 -1.413123603471e-09 -2.345826482157e+05 7.318447868173e-06 -7.912798223057e+04 -7.910325566095e+04 -7.898353141780e-06 7.435543034064e-16 -1.256109736260e-09 0.000000000000e+00 0.000000000000e+00 
4.000000000000e+00 1.000000000000e+00 0.000000000000e+00 2.981559555795e+02 7.487127807331e-06 -1.413123403206e-09 -2.345826482309e+05 4.378629539966e-07 -8.802106644696e+04 -8.799633989109e+04 -7.446584463663e-06 4.448687612605e-17 -1.256109038181e-09 0.000000000000e+00 0.000000000000e+00 
5.000000000000e+00 1.000000000000e+00 0.000000000000e+00 2.981481874324e+02 8.811606613927e-16 -1.413123515826e-09 -2.345826482064e+05 -3.472150187158e-06 -8.642487184773e+04 -8.640014526944e+04 -7.527671149198e-06 -3.527704590153e-16 -1.256110177463e-09 0.000000000000e+00 0.000000000000e+00 
0.000000000000e+00 0.000000000000e+00 0.000000000000e+00 3.080000000000e+02 0.000000000000e+00 0.000000000000e+00 -2.345862765713e+05 5.086509967778e-07 -2.110779729983e+06 -2.110748821769e+06 9.530905729604e-05 5.167894127262e-17 -1.570137291790e-09 0.000000000000e+00 0.000000000000e+00 
1.000000000000e+00 0.000000000000e+00 0.000000000000e+00 2.966146691434e+02 3.588698803072e-05 0.000000000000e+00 -2.345862765707e+05 -1.600394268925e-06 2.286718158941e+05 2.287027241096e+05 -2.353508123456e-05 -1.626000577227e-16 -1.570137344799e-09 0.000000000000e+00 0.000000000000e+00 
2.000000000000e+00 0.000000000000e+00 0.000000000000e+00 2.983893170581e+02 2.161411029695e-05 0.000000000000e+00 -2.345862765513e+05 -3.161965685884e-07 -1.359818652370e+05 -1.359509570034e+05 -5.010674233033e-06 -3.212557136858e-17 -1.570138267711e-09 0.000000000000e+00 0.000000000000e+00 
3.000000000000e+00 0.000000000000e+00 0.000000000000e+00 2.981126759030e+02 1.515959660991e-05 0.000000000000e+00 -2.345862765675e+05 3.065444989717e-07 -7.913779224373e+04 -7.910688402619e+04 -7.898353141097e-06 3.114492109552e-17 -1.570137450996e-09 0.000000000000e+00 0.000000000000e+00 
4.000000000000e+00 0.000000000000e+00 0.000000000000e+00 2.981559555794e+02 7.487127807277e-06 0.000000000000e+00 -2.345862765632e+05 7.667653407584e-07 -8.803087643761e+04 -8.799996821448e+04 -7.446584464115e-06 7.790335862105e-17 -1.570137734961e-09 0.000000000000e+00 0.000000000000e+00 
5.000000000000e+00 0.000000000000e+00 0.000000000000e+00 2.981481874325e+02 8.892831424718e-16 0.000000000000e+00 -2.345862765805e+05 1.273576598558e-06 -8.643468185928e+04 -8.640377365384e+04 -7.527671148673e-06 1.293953824135e-16 -1.570136836021e-09 0.000000000000e+00 0.000000000000e+00 
6.000000000000e+00 9.000000000000e+00 0.000000000000e+00 2.981559555794e+02 -7.487127806098e-06 -1.413123801452e-09 -2.345536213538e+05 -2.908590073751e-06 -8.794258644428e+04 -8.796731301350e+04 -7.446584463688e-06 -2.955127514931e-16 1.256109716016e-09 0.000000000000e+00 0.000000000000e+00 
6.000000000000e+00 1.000000000000e+01 0.000000000000e+00 2.981559555794e+02 -7.487127806173e-06 0.000000000000e+00 -2.345499930103e+05 -7.927812542922e-07 -8.793277643855e+04 -8.796368466352e+04 -7.446584464014e-06 -8.054657543609e-17 1.570137828764e-09 0.000000000000e+00 0.000000000000e+00 
7.000000000000e+00 9.000000000000e+00 0.000000000000e+00 2.981126759030e+02 -1.515959660860e-05 -1.413124006060e-09 -2.345536213720e+05 6.441961651332e-06 -7.904950223922e+04 -7.907422882486e+04 -7.898353141393e-06 6.545033037753e-16 1.256110550510e-09 0.000000000000e+00 0.000000000000e+00 
7.000000000000e+00 1.000000000000e+01 0.000000000000e+00 2.981126759031e+02 -1.515959660834e-05 0.000000000000e+00 -2.345499930062e+05 3.018212837219e-06 -7.903969226471e+04 -7.907060048429e+04 -7.898353140113e-06 3.066504242614e-16 1.570137554580e-09 0.000000000000e+00 0.000000000000e+00 
8.000000000000e+00 9.000000000000e+00 0.000000000000e+00 2.983893170582e+02 -2.161411029619e-05 -1.413123683693e-09 -2.345536213694e+05 -1.144867945163e-05 -1.358935752252e+05 -1.359183018084e+05 -5.010674233699e-06 -1.163185832286e-15 1.256110427603e-09 0.000000000000e+00 0.000000000000e+00 
8.000000000000e+00 1.000000000000e+01 0.000000000000e+00 2.983893170578e+02 -2.161411029662e-05 0.000000000000e+00 -2.345499929833e+05 -3.554634596596e-06 -1.358837651603e+05 -1.359146733630e+05 -5.010674236713e-06 -3.611508750142e-16 1.570136693489e-09 0.000000000000e+00 0.000000000000e+00 
9.000000000000e+00 9.000000000000e+00 0.000000000000e+00 2.966146691433e+02 -3.588698803057e-05 -1.413124819616e-09 -2.345536213529e+05 -1.593974417124e-05 2.287601059065e+05 2.287353793382e+05 -2.353508123511e-05 -1.619478007798e-15 1.256109671101e-09 0.000000000000e+00 0.000000000000e+00 
9.000000000000e+00 1.000000000000e+01 0.000000000000e+00 2.966146691439e+02 -3.588698803106e-05 0.000000000000e+00 -2.345499930615e+05 -2.660088349901e-06 2.287699158423e+05 2.287390075713e+05 -2.353508123215e-05 -2.702649763500e-16 1.570140169288e-09 0.000000000000e+00 0.000000000000e+00 
1.000000000000e+01 9.000000000000e+00 0.000000000000e+00 3.080000000000e+02 0.000000000000e+00 -1.413124763129e-09 -2.345536213616e+05 6.716749570776e-06 -2.110691439988e+06 -2.110716166564e+06 9.530905729627e-05 6.824217563909e-16 1.256110031846e-09 0.000000000000e+00 0.000000000000e+00 
1.000000000000e+01 1.000000000000e+01 0.000000000000e+00 3.080000000000e+02 0.000000000000e+00 0.000000000000e+00 -2.345499930422e+05 2.570197025262e-06 -2.110681629950e+06 -2.110712538207e+06 9.530905729437e-05 2.611320177666e-16 1.570139471561e-09 0.000000000000e+00 0.000000000000e+00 
6.000000000000e+00 8.000000000000e+00 0.000000000000e+00 2.981559555796e+02 -7.487127806029e-06 -2.512220177908e-09 -2.345572497312e+05 -2.631253382327e-07 -8.795239648195e+04 -8.797094142471e+04 -7.446584461969e-06 -2.673353436444e-17 9.420830921065e-10 0.000000000000e+00 0.000000000000e+00 
7.000000000000e+00 8.000000000000e+00 0.000000000000e+00 2.981126759027e+02 -1.515959660863e-05 -2.512220231178e-09 -2.345572497000e+05 -2.131795084384e-06 -7.905931219853e+04 -7.907785711536e+04 -7.898353143300e-06 -2.165903805734e-16 9.420817747423e-10 0.000000000000e+00 0.000000000000e+00 
8.000000000000e+00 8.000000000000e+00 0.000000000000e+00 2.983893170585e+02 -2.161411029591e-05 -2.512220344899e-09 -2.345572497350e+05 -2.518028725137e-06 -1.359033852779e+05 -1.359219302229e+05 -5.010674231212e-06 -2.558317184739e-16 9.420832072008e-10 0.000000000000e+00 0.000000000000e+00 
9.000000000000e+00 8.000000000000e+00 0.000000000000e+00 2.966146691430e+02 -3.588698803011e-05 -2.512220457442e-09 -2.345572496919e+05 -1.940271353361e-06 2.287502959465e+05 2.287317510380e+05 -2.353508123708e-05 -1.971315695015e-16 9.420813528119e-10 0.000000000000e+00 0.000000000000e+00 
1.000000000000e+01 8.000000000000e+00 0.000000000000e+00 3.080000000000e+02 0.000000000000e+00 -2.512220531508e-09 -2.345572496996e+05 -4.458652398343e-07 -2.110701250007e+06 -2.110719794920e+06 9.530905729720e-05 -4.529990836716e-17 9.420815798106e-10 0.000000000000e+00 0.000000000000e+00 
6.000000000000e+00 7.000000000000e+00 0.000000000000e+00 2.981559555794e+02 -7.487127806044e-06 -3.297289060477e-09 -2.345608780673e+05 -5.963675499526e-07 -8.796220644763e+04 -8.797456972972e+04 -7.446584463549e-06 -6.059094307519e-17 6.280547303053e-10 0.000000000000e+00 0.000000000000e+00 
7.000000000000e+00 7.000000000000e+00 0.000000000000e+00 2.981126759030e+02 -1.515959660851e-05 -3.297288940914e-09 -2.345608780872e+05 -1.989805129707e-06 -7.906912224139e+04 -7.908148554096e+04 -7.898353141347e-06 -2.021642011782e-16 6.280556182064e-10 0.000000000000e+00 0.000000000000e+00 
8.000000000000e+00 7.000000000000e+00 0.000000000000e+00 2.983893170581e+02 -2.161411029584e-05 -3.297289173100e-09 -2.345608780623e+05 1.995913856251e-07 -1.359131952319e+05 -1.359255585089e+05 -5.010674233311e-06 2.027848477951e-17 6.280544756493e-10 0.000000000000e+00 0.000000000000e+00 
9.000000000000e+00 7.000000000000e+00 0.000000000000e+00 2.966146691433e+02 -3.588698803027e-05 -3.297288897546e-09 -2.345608780842e+05 4.687403070355e-06 2.287404859139e+05 2.287281226164e+05 -2.353508123559e-05 4.762401519480e-16 6.280555165039e-10 0.000000000000e+00 0.000000000000e+00 
1.000000000000e+01 7.000000000000e+00 0.000000000000e+00 3.080000000000e+02 0.000000000000e+00 -3.297288921063e-09 -2.345608780759e+05 -2.036943608207e-06 -2.110711059985e+06 -2.110723423276e+06 9.530905729615e-05 -2.069534705938e-16 6.280551557336e-10 0.000000000000e+00 0.000000000000e+00 
6.000000000000e+00 6.000000000000e+00 0.000000000000e+00 2.981559555794e+02 -7.487127805945e-06 -3.768330164688e-09 -2.345645064282e+05 -2.290180308333e-06 -8.797201644804e+04 -8.797819808965e+04 -7.446584463599e-06 -2.326823193266e-16 3.140273936546e-10 0.000000000000e+00 0.000000000000e+00 
7.000000000000e+00 6.000000000000e+00 0.000000000000e+00 2.981126759029e+02 -1.515959660847e-05 -3.768330258893e-09 -2.345645064228e+05 -3.036063525478e-07 -7.907893223787e+04 -7.908511387441e+04 -7.898353141458e-06 -3.084640541886e-17 3.140271363941e-10 0.000000000000e+00 0.000000000000e+00 
8.000000000000e+00 6.000000000000e+00 0.000000000000e+00 2.983893170582e+02 -2.161411029586e-05 -3.768330225233e-09 -2.345645064297e+05 4.178980292710e-07 -1.359230052329e+05 -1.359291868761e+05 -5.010674233318e-06 4.245843977393e-17 3.140274789675e-10 0.000000000000e+00 0.000000000000e+00 
9.000000000000e+00 6.000000000000e+00 0.000000000000e+00 2.966146691432e+02 -3.588698803033e-05 -3.768330260625e-09 -2.345645064262e+05 -4.320302619749e-07 2.287306759151e+05 2.287244942752e+05 -2.353508123563e-05 -4.389427461665e-17 3.140273056732e-10 0.000000000000e+00 0.000000000000e+00 
1.000000000000e+01 6.000000000000e+00 0.000000000000e+00 3.080000000000e+02 0.000000000000e+00 -3.768330246929e-09 -2.345645064296e+05 5.260389509034e-07 -2.110720869989e+06 -2.110727051632e+06 9.530905729630e-05 5.344555741179e-17 3.140274702854e-10 0.000000000000e+00 0.000000000000e+00 
6.000000000000e+00 5.000000000000e+00 0.000000000000e+00 2.981559555794e+02 -7.487127805847e-06 -3.925343766215e-09 -2.345681347835e+05 -2.747671102746e-06 -8.798182644697e+04 -8.798182644386e+04 -7.446584463653e-06 -2.791633840390e-16 -1.581067078119e-16 0.000000000000e+00 0.000000000000e+00 
7.000000000000e+00 5.000000000000e+00 0.000000000000e+00 2.981126759029e+02 -1.515959660842e-05 -3.925343844168e-09 -2.345681347861e+05 -1.348851372582e-06 -7.908874223788e+04 -7.908874223724e+04 -7.898353141484e-06 -1.370432994543e-16 -3.215444042466e-17 0.000000000000e+00 0.000000000000e+00 
8.000000000000e+00 5.000000000000e+00 0.000000000000e+00 2.983893170582e+02 -2.161411029585e-05 -3.925343897390e-09 -2.345681347855e+05 -5.441415624153e-07 -1.359328152322e+05 -1.359328152310e+05 -5.010674233369e-06 -5.528478274140e-17 -6.308307693810e-17 0.000000000000e+00 0.000000000000e+00 
9.000000000000e+00 5.000000000000e+00 0.000000000000e+00 2.966146691433e+02 -3.588698803035e-05 -3.925343912179e-09 -2.345681347855e+05 5.282861271236e-08 2.287208659151e+05 2.287208659158e+05 -2.353508123563e-05 5.367387051576e-18 -3.566107020881e-17 0.000000000000e+00 0.000000000000e+00 
1.000000000000e+01 5.000000000000e+00 0.000000000000e+00 3.080000000000e+02 0.000000000000e+00 -3.925343925556e-09 -2.345681347854e+05 -1.346589400473e-08 -2.110730679991e+06 -2.110730679989e+06 9.530905729633e-05 -1.368134830881e-18 -9.107037403934e-17 0.000000000000e+00 0.000000000000e+00 
6.000000000000e+00 4.000000000000e+00 0.000000000000e+00 2.981559555794e+02 -7.487127805700e-06 -3.768329953701e-09 -2.345717631433e+05 -2.277079224650e-06 -8.799163644357e+04 -8.798545480030e+04 -7.446584463826e-06 -2.313512492245e-16 -3.140274784282e-10 0.000000000000e+00 0.000000000000e+00 
7.000000000000e+00 4.000000000000e+00 0.000000000000e+00 2.981126759029e+02 -1.515959660836e-05 -3.768330050296e-09 -2.345717631412e+05 -1.032846372893e-06 -7.909855223599e+04 -7.909237059155e+04 -7.898353141521e-06 -1.049371914859e-16 -3.140275375172e-10 0.000000000000e+00 0.000000000000e+00 
8.000000000000e+00 4.000000000000e+00 0.000000000000e+00 2.983893170582e+02 -2.161411029583e-05 -3.768330084371e-09 -2.345717631415e+05 -3.042056449527e-07 -1.359426252316e+05 -1.359364435862e+05 -5.010674233409e-06 -3.090729352719e-17 -3.140275866048e-10 0.000000000000e+00 0.000000000000e+00 
9.000000000000e+00 4.000000000000e+00 0.000000000000e+00 2.966146691433e+02 -3.588698803035e-05 -3.768330107320e-09 -2.345717631413e+05 -2.446428438435e-07 2.287110559151e+05 2.287172375602e+05 -2.353508123563e-05 -2.485571293450e-17 -3.140275697813e-10 0.000000000000e+00 0.000000000000e+00 
1.000000000000e+01 4.000000000000e+00 0.000000000000e+00 3.080000000000e+02 0.000000000000e+00 -3.768330101741e-09 -2.345717631409e+05 1.278168783615e-07 -2.110740489989e+06 -2.110734308344e+06 9.530905729634e-05 1.298619484153e-17 -3.140275626371e-10 0.000000000000e+00 0.000000000000e+00 
6.000000000000e+00 3.000000000000e+00 0.000000000000e+00 2.981559555794e+02 -7.487127805637e-06 -3.297288678007e-09 -2.345753914972e+05 -1.531591570619e-06 -8.800144644498e+04 -8.798908315605e+04 -7.446584463728e-06 -1.556097035749e-16 -6.280550772770e-10 0.000000000000e+00 0.000000000000e+00 
7.000000000000e+00 3.000000000000e+00 0.000000000000e+00 2.981126759029e+02 -1.515959660831e-05 -3.297288781282e-09 -2.345753914990e+05 -2.588911432293e-06 -7.910836223504e+04 -7.909599894743e+04 -7.898353141618e-06 -2.630334015209e-16 -6.280550106170e-10 0.000000000000e+00 0.000000000000e+00 
8.000000000000e+00 3.000000000000e+00 0.000000000000e+00 2.983893170582e+02 -2.161411029581e-05 -3.297288881285e-09 -2.345753915029e+05 -2.085906749801e-07 -1.359524352312e+05 -1.359400719479e+05 -5.010674233393e-06 -2.119281257798e-17 -6.280547890269e-10 0.000000000000e+00 0.000000000000e+00 
9.000000000000e+00 3.000000000000e+00 0.000000000000e+00 2.966146691433e+02 -3.588698803036e-05 -3.297288810925e-09 -2.345753914979e+05 1.740264536731e-06 2.287012459164e+05 2.287136092045e+05 -2.353508123568e-05 1.768108769319e-16 -6.280550353712e-10 0.000000000000e+00 0.000000000000e+00 
1.000000000000e+01 3.000000000000e+00 0.000000000000e+00 3.080000000000e+02 0.000000000000e+00 -3.297288754018e-09 -2.345753914963e+05 -6.946263849791e-08 -2.110750299991e+06 -2.110737936701e+06 9.530905729639e-05 -7.057404071388e-18 -6.280551525990e-10 0.000000000000e+00 0.000000000000e+00 
6.000000000000e+00 2.000000000000e+00 0.000000000000e+00 2.981559555794e+02 -7.487127805550e-06 -2.512219896304e-09 -2.345790198552e+05 -1.350198675801e-06 -8.801125644332e+04 -8.799271151267e+04 -7.446584463801e-06 -1.371801854614e-16 -9.420824767276e-10 0.000000000000e+00 0.000000000000e+00 
7.000000000000e+00 2.000000000000e+00 0.000000000000e+00 2.981126759029e+02 -1.515959660817e-05 -2.512220019242e-09 -2.345790198546e+05 -2.677074862135e-06 -7.911817223742e+04 -7.909962730621e+04 -7.898353141458e-06 -2.719908059929e-16 -9.420825056017e-10 0.000000000000e+00 0.000000000000e+00 
8.000000000000e+00 2.000000000000e+00 0.000000000000e+00 2.983893170581e+02 -2.161411029582e-05 -2.512220065844e-09 -2.345790198481e+05 1.301957411523e-06 -1.359622452229e+05 -1.359437002849e+05 -5.010674233809e-06 1.322788730108e-16 -9.420828478158e-10 0.000000000000e+00 0.000000000000e+00 
9.000000000000e+00 2.000000000000e+00 0.000000000000e+00 2.966146691433e+02 -3.588698803045e-05 -2.512219919071e-09 -2.345790198501e+05 2.249081234015e-06 2.286914359122e+05 2.287099808481e+05 -2.353508123547e-05 2.285066533760e-16 -9.420827477035e-10 0.000000000000e+00 0.000000000000e+00 
1.000000000000e+01 2.000000000000e+00 0.000000000000e+00 3.080000000000e+02 0.000000000000e+00 -2.512219872391e-09 -2.345790198529e+05 -3.545847998558e-07 -2.110760109990e+06 -2.110741565057e+06 9.530905729636e-05 -3.602581566535e-17 -9.420826233568e-10 0.000000000000e+00 0.000000000000e+00 
6.000000000000e+00 1.000000000000e+00 0.000000000000e+00 2.981559555794e+02 -7.487127805461e-06 -1.413123653036e-09 -2.345826482108e+05 -3.364798644487e-06 -8.802106644806e+04 -8.799633987312e+04 -7.446584463555e-06 -3.418635422799e-16 -1.256110006684e-09 0.000000000000e+00 0.000000000000e+00 
7.000000000000e+00 1.000000000000e+00 0.000000000000e+00 2.981126759029e+02 -1.515959660806e-05 -1.413123803583e-09 -2.345826482124e+05 -3.439417151272e-06 -7.912798223385e+04 -7.910325566075e+04 -7.898353141624e-06 -3.494447825692e-16 -1.256109913533e-09 0.000000000000e+00 0.000000000000e+00 
8.000000000000e+00 1.000000000000e+00 0.000000000000e+00 2.983893170582e+02 -2.161411029589e-05 -1.413123864805e-09 -2.345826482200e+05 2.067217895587e-06 -1.359720552181e+05 -1.359473286523e+05 -5.010674234038e-06 2.100293381916e-16 -1.256109542612e-09 0.000000000000e+00 0.000000000000e+00 
9.000000000000e+00 1.000000000000e+00 0.000000000000e+00 2.966146691433e+02 -3.588698803050e-05 -1.413123656524e-09 -2.345826482147e+05 2.810691422235e-06 2.286816259068e+05 2.287063524775e+05 -2.353508123516e-05 2.855662484991e-16 -1.256109789840e-09 0.000000000000e+00 0.000000000000e+00 
1.000000000000e+01 1.000000000000e+00 0.000000000000e+00 3.080000000000e+02 0.000000000000e+00 -1.413123616075e-09 -2.345826482129e+05 -5.394715808285e-07 -2.110769919985e+06 -2.110745193413e+06 9.530905729615e-05 -5.481031261218e-17 -1.256109876082e-09 0.000000000000e+00 0.000000000000e+00 
6.000000000000e+00 0.000000000000e+00 0.000000000000e+00 2.981559555794e+02 -7.487127805324e-06 0.000000000000e+00 -2.345862765705e+05 -1.018427321112e-06 -8.803087644473e+04 -8.799996823019e+04 -7.446584463686e-06 -1.034722158250e-16 -1.570137298481e-09 0.000000000000e+00 0.000000000000e+00 
7.000000000000e+00 0.000000000000e+00 0.000000000000e+00 2.981126759029e+02 -1.515959660792e-05 0.000000000000e+00 -2.345862765634e+05 -9.801056893495e-07 -7.913779223654e+04 -7.910688401380e+04 -7.898353141519e-06 -9.957873803791e-17 -1.570137715439e-09 0.000000000000e+00 0.000000000000e+00 
8.000000000000e+00 0.000000000000e+00 0.000000000000e+00 2.983893170580e+02 -2.161411029591e-05 0.000000000000e+00 -2.345862765516e+05 5.738899551180e-08 -1.359818652070e+05 -1.359509569745e+05 -5.010674234517e-06 5.830721943999e-18 -1.570138214047e-09 0.000000000000e+00 0.000000000000e+00 
9.000000000000e+00 0.000000000000e+00 0.000000000000e+00 2.966146691433e+02 -3.588698803060e-05 0.000000000000e+00 -2.345862765685e+05 1.058873277138e-06 2.286718158993e+05 2.287027241179e+05 -2.353508123487e-05 1.075815249573e-16 -1.570137504752e-09 0.000000000000e+00 0.000000000000e+00 
1.000000000000e+01 0.000000000000e+00 0.000000000000e+00 3.080000000000e+02 0.000000000000e+00 0.000000000000e+00 -2.345862765703e+05 -1.417946463406e-07 -2.110779729984e+06 -2.110748821769e+06 9.530905729609e-05 -1.440633606820e-17 -1.570137335422e-09 0.000000000000e+00 0.000000000000e+00 
1  2  3  4  
4  3  5  6  
6  5  7  8  
8  7  9  10  
10  9  11  12  
2  13  14  3  
3  14  15  5  
5  15  16  7  
7  16  17  9  
9  17  18  11  
13  19  20  14  
14  20  21  15  
15  21  22  16  
16  22  23  17  
17  23  24  18  
19  25  26  20  
20  26  27  21  
21  27  28  22  
22  28  29  23  
23  29  30  24  
25  31  32  26  
26  32  33  27  
27  33  34  28  
28  34  35  29  
29  35  36  30  
31  37  38  32  
32  38  39  33  
33  39  40  34  
34  40  41  35  
35  41  42  36  
37  43  44  38  
38  44  45  39  
39  45  46  40  
40  46  47  41  
41  47  48  42  
43  49  50  44  
44  50  51  45  
45  51  52  46  
46  52  53  47  
47  53  54  48  
49  55  56  50  
50  56  57  51  
51  57  58  52  
52  58  59  53  
53  59  60  54  
55  61  62  56  
56  62  63  57  
57  63  64  58  
58  64  65  59  
59  65  66  60  
12  11  67  68  
68  67  69  70  
70  69  71  72  
72  71  73  74  
74  73  75  76  
11  18  77  67  
67  77  78  69  
69  78  79  71  
71  79  80  73  
73  80  81  75  
18  24  82  77  
77  82  83  78  
78  83  84  79  
79  84  85  80  
80  85  86  81  
24  30  87  82  
82  87  88  83  
83  88  89  84  
84  89  90  85  
85  90  91  86  
30  36  92  87  
87  92  93  88  
88  93  94  89  
89  94  95  90  
90  95  96  91  
36  42  97  92  
92  97  98  93  
93  98  99  94  
94  99  100  95  
95  100  101  96  
42  48  102  97  
97  102  103  98  
98  103  104  99  
99  104  105  100  
100  105  106  101  
48  54  107  102  
102  107  108  103  
103  108  109  104  
104  109  110  105  
105  110  111  106  
54  60  112  107  
107  112  113  108  
108  113  114  109  
109  114  115  110  
110  115  116  111  
60  66  117  112  
112  117  118  113  
113  118  119  114  
114  119  120  115  
115  120  121  116  
VARIABLES  = "X","Y","Z", "TEMPERATURE1", "DISPLACEMENT_X1", "DISPLACEMENT_Y1", "STRESS_XX", "STRESS_XY", "STRESS_YY", "STRESS_ZZ", "STRAIN_XX", "STRAIN_XY", "STRAIN_YY", "STRAIN_ZZ", "STRAIN_PLS"
ZONE T="2.000000000000e-01s", N=121, E=100, F=FEPOINT, ET=QUADRILATERAL
STRANDID=1, SOLUTIONTIME=2.000000000000e-01
0.000000000000e+00 1.000000000000e+01 0.000000000000e+00 3.080000000000e+02 0.000000000000e+00 0.000000000000e+00 -3.225130901870e+05 -1.362204213535e-06 -2.143215926171e+06 -2.143246834416e+06 9.249327420683e-05 -1.383999480952e-16 1.570138824849e-09 0.000000000000e+00 0.000000000000e+00 
0.000000000000e+00 9.000000000000e+00 0.000000000000e+00 3.080000000000e+02 0.000000000000e+00 -1.413124403784e-09 -3.225167185170e+05 -4.054849543368e-06 -2.143225736200e+06 -2.143250462773e+06 9.249327420820e-05 -4.119727136062e-16 1.256109892285e-09 0.000000000000e+00 0.000000000000e+00 
1.000000000000e+00 9.000000000000e+00 0.000000000000e+00 2.984166783212e+02 4.247621174764e-05 -1.413124645223e-09 -3.225167185129e+05 -4.186301650844e-06 -1.740500487762e+05 -1.740747753455e+05 -7.540850712907e-06 -4.253282477258e-16 1.256109720962e-09 0.000000000000e+00 0.000000000000e+00 
1.000000000000e+00 1.000000000000e+01 0.000000000000e+00 2.984166783216e+02 4.247621174763e-05 0.000000000000e+00 -3.225130902111e+05 -8.703131400512e-07 -1.740402388036e+05 -1.740711470665e+05 -7.540850711746e-06 -8.842381502920e-17 1.570139754667e-09 0.000000000000e+00 0.000000000000e+00 
2.000000000000e+00 9.000000000000e+00 0.000000000000e+00 2.978275242650e+02 3.186046109707e-05 -1.413123818514e-09 -3.225167185313e+05 5.059999478901e-05 -5.299099611174e+04 -5.301572269850e+04 -1.369065058831e-05 5.140959470563e-15 1.256110607588e-09 0.000000000000e+00 0.000000000000e+00 
2.000000000000e+00 1.000000000000e+01 0.000000000000e+00 2.978275242652e+02 3.186046109861e-05 0.000000000000e+00 -3.225130901616e+05 1.059705494329e-05 -5.298118616881e+04 -5.301209438238e+04 -1.369065058559e-05 1.076660782238e-15 1.570137249167e-09 0.000000000000e+00 0.000000000000e+00 
3.000000000000e+00 9.000000000000e+00 0.000000000000e+00 2.982442001649e+02 2.034451623266e-05 -1.413121761484e-09 -3.225167185414e+05 7.660683019266e-06 -1.386093317007e+05 -1.386340582969e+05 -9.341239140420e-06 7.783253947575e-16 1.256111090022e-09 0.000000000000e+00 0.000000000000e+00 
3.000000000000e+00 1.000000000000e+01 0.000000000000e+00 2.982442001636e+02 2.034451623276e-05 0.000000000000e+00 -3.225130900380e+05 -1.066000003605e-06 -1.385995215640e+05 -1.386304296708e+05 -9.341239146655e-06 -1.083056003662e-16 1.570131827223e-09 0.000000000000e+00 0.000000000000e+00 
4.000000000000e+00 9.000000000000e+00 0.000000000000e+00 2.981276639362e+02 1.039505376231e-05 -1.413123297056e-09 -3.225167185108e+05 -4.396520993895e-05 -1.146635313071e+05 -1.146882578745e+05 -1.055768580032e-05 -4.466865329797e-15 1.256109624268e-09 0.000000000000e+00 0.000000000000e+00 
4.000000000000e+00 1.000000000000e+01 0.000000000000e+00 2.981276639365e+02 1.039505376104e-05 0.000000000000e+00 -3.225130901582e+05 -7.979838913397e-06 -1.146537213728e+05 -1.146846295832e+05 -1.055768579721e-05 -8.107516336012e-16 1.570137084510e-09 0.000000000000e+00 0.000000000000e+00 
5.000000000000e+00 9.000000000000e+00 0.000000000000e+00 2.981588244056e+02 9.354446547171e-16 -1.413124056613e-09 -3.225167185274e+05 2.661363416585e-06 -1.210663674877e+05 -1.210910940702e+05 -1.023242172242e-05 2.703945231251e-16 1.256110395540e-09 0.000000000000e+00 0.000000000000e+00 
5.000000000000e+00 1.000000000000e+01 0.000000000000e+00 2.981588244057e+02 9.796104226449e-16 0.000000000000e+00 -3.225130901724e+05 1.620601531721e-06 -1.210565574912e+05 -1.210874657173e+05 -1.023242172232e-05 1.646531156229e-16 1.570137886348e-09 0.000000000000e+00 0.000000000000e+00 
0.000000000000e+00 8.000000000000e+00 0.000000000000e+00 3.080000000000e+02 0.000000000000e+00 -2.512220058563e-09 -3.225203468585e+05 3.733034189428e-07 -2.143235546217e+06 -2.143254091130e+06 9.249327420897e-05 3.792762736459e-17 9.420815575914e-10 0.000000000000e+00 0.000000000000e+00 
1.000000000000e+00 8.000000000000e+00 0.000000000000e+00 2.984166783210e+02 4.247621174771e-05 -2.512219988257e-09 -3.225203468392e+05 2.868053051199e-06 -1.740598587653e+05 -1.740784036622e+05 -7.540850713388e-06 2.913941900018e-16 9.420807629572e-10 0.000000000000e+00 0.000000000000e+00 
2.000000000000e+00 8.000000000000e+00 0.000000000000e+00 2.978275242645e+02 3.186046109580e-05 -2.512219857684e-09 -3.225203468445e+05 3.537302947669e-07 -5.300080605546e+04 -5.301935096025e+04 -1.369065059092e-05 3.593899794832e-17 9.420811630944e-10 0.000000000000e+00 0.000000000000e+00 
3.000000000000e+00 8.000000000000e+00 0.000000000000e+00 2.982442001656e+02 2.034451623244e-05 -2.512219971830e-09 -3.225203469538e+05 -6.830034640814e-06 -1.386191418025e+05 -1.386376868034e+05 -9.341239135639e-06 -6.939315195067e-16 9.420860456971e-10 0.000000000000e+00 0.000000000000e+00 
4.000000000000e+00 8.000000000000e+00 0.000000000000e+00 2.981276639362e+02 1.039505376353e-05 -2.512220306116e-09 -3.225203469099e+05 -3.366809736648e-06 -1.146733412816e+05 -1.146918862471e+05 -1.055768580167e-05 -3.420678692434e-16 9.420842502326e-10 0.000000000000e+00 0.000000000000e+00 
5.000000000000e+00 8.000000000000e+00 0.000000000000e+00 2.981588244054e+02 8.945223046363e-16 -2.512220300872e-09 -3.225203468607e+05 2.468159271145e-06 -1.210761774516e+05 -1.210947223717e+05 -1.023242172404e-05 2.507649819483e-16 9.420819365069e-10 0.000000000000e+00 0.000000000000e+00 
0.000000000000e+00 7.000000000000e+00 0.000000000000e+00 3.080000000000e+02 0.000000000000e+00 -3.297288306963e-09 -3.225239752293e+05 1.289024126765e-06 -2.143245356199e+06 -2.143257719485e+06 9.249327420818e-05 1.309648512793e-16 6.280549241478e-10 0.000000000000e+00 0.000000000000e+00 
1.000000000000e+00 7.000000000000e+00 0.000000000000e+00 2.984166783212e+02 4.247621174747e-05 -3.297288187678e-09 -3.225239752437e+05 3.302616991378e-06 -1.740696687685e+05 -1.740820320676e+05 -7.540850713349e-06 3.355458863240e-16 6.280555901746e-10 0.000000000000e+00 0.000000000000e+00 
2.000000000000e+00 7.000000000000e+00 0.000000000000e+00 2.978275242650e+02 3.186046109662e-05 -3.297288477512e-09 -3.225239752543e+05 -2.145698649755e-05 -5.301061611555e+04 -5.302297942343e+04 -1.369065058821e-05 -2.180029828151e-15 6.280560402373e-10 0.000000000000e+00 0.000000000000e+00 
3.000000000000e+00 7.000000000000e+00 0.000000000000e+00 2.982442001648e+02 2.034451623317e-05 -3.297289604838e-09 -3.225239751972e+05 -1.507755926694e-05 -1.386289517334e+05 -1.386413149876e+05 -9.341239138646e-06 -1.531880021521e-15 6.280533174227e-10 0.000000000000e+00 0.000000000000e+00 
4.000000000000e+00 7.000000000000e+00 0.000000000000e+00 2.981276639360e+02 1.039505376295e-05 -3.297289444277e-09 -3.225239752135e+05 1.618731834496e-05 -1.146831512751e+05 -1.146955145449e+05 -1.055768580196e-05 1.644631543848e-15 6.280541071138e-10 0.000000000000e+00 0.000000000000e+00 
5.000000000000e+00 7.000000000000e+00 0.000000000000e+00 2.981588244056e+02 7.728649674235e-16 -3.297288942592e-09 -3.225239752373e+05 1.525526727719e-06 -1.210859874911e+05 -1.210983507828e+05 -1.023242172229e-05 1.549935155363e-16 6.280552191554e-10 0.000000000000e+00 0.000000000000e+00 
0.000000000000e+00 6.000000000000e+00 0.000000000000e+00 3.080000000000e+02 0.000000000000e+00 -3.768329532293e-09 -3.225276035874e+05 2.566433991082e-07 -2.143255166198e+06 -2.143261347841e+06 9.249327420810e-05 2.607496934939e-17 3.140274667860e-10 0.000000000000e+00 0.000000000000e+00 
1.000000000000e+00 6.000000000000e+00 0.000000000000e+00 2.984166783212e+02 4.247621174757e-05 -3.768329554174e-09 -3.225276035824e+05 -1.723904840673e-06 -1.740794787770e+05 -1.740856604145e+05 -7.540850712927e-06 -1.751487318124e-16 3.140271842273e-10 0.000000000000e+00 0.000000000000e+00 
2.000000000000e+00 6.000000000000e+00 0.000000000000e+00 2.978275242649e+02 3.186046109714e-05 -3.768329786432e-09 -3.225276035734e+05 -8.185172212967e-06 -5.302042611909e+04 -5.302660774783e+04 -1.369065058794e-05 -8.316134968374e-16 3.140267399103e-10 0.000000000000e+00 0.000000000000e+00 
3.000000000000e+00 6.000000000000e+00 0.000000000000e+00 2.982442001649e+02 2.034451623344e-05 -3.768330144721e-09 -3.225276035895e+05 -1.600187253686e-06 -1.386387617191e+05 -1.386449433639e+05 -9.341239139457e-06 -1.625790249745e-16 3.140275602371e-10 0.000000000000e+00 0.000000000000e+00 
4.000000000000e+00 6.000000000000e+00 0.000000000000e+00 2.981276639360e+02 1.039505376268e-05 -3.768330015964e-09 -3.225276035767e+05 3.421448714616e-06 -1.146929612726e+05 -1.146991429054e+05 -1.055768580210e-05 3.476191894050e-16 3.140269444828e-10 0.000000000000e+00 0.000000000000e+00 
5.000000000000e+00 6.000000000000e+00 0.000000000000e+00 2.981588244056e+02 7.915546592216e-16 -3.768330031223e-09 -3.225276035808e+05 -3.316849960769e-06 -1.210957975022e+05 -1.211019791380e+05 -1.023242172169e-05 -3.369919560141e-16 3.140271012069e-10 0.000000000000e+00 0.000000000000e+00 
0.000000000000e+00 5.000000000000e+00 0.000000000000e+00 3.080000000000e+02 0.000000000000e+00 -3.925343310616e-09 -3.225312319468e+05 3.804418547513e-07 -2.143264976195e+06 -2.143264976198e+06 9.249327420794e-05 3.865289244273e-17 1.227742279144e-16 0.000000000000e+00 0.000000000000e+00 
1.000000000000e+00 5.000000000000e+00 0.000000000000e+00 2.984166783212e+02 4.247621174755e-05 -3.925343294517e-09 -3.225312319510e+05 3.199628752171e-07 -1.740892887782e+05 -1.740892887843e+05 -7.540850712865e-06 3.250822812206e-17 3.110255260704e-16 0.000000000000e+00 0.000000000000e+00 
2.000000000000e+00 5.000000000000e+00 0.000000000000e+00 2.978275242651e+02 3.186046109748e-05 -3.925343364197e-09 -3.225312319526e+05 -3.036165493138e-06 -5.303023613496e+04 -5.303023614211e+04 -1.369065058717e-05 -3.084744141028e-16 3.628622371659e-16 0.000000000000e+00 0.000000000000e+00 
3.000000000000e+00 5.000000000000e+00 0.000000000000e+00 2.982442001647e+02 2.034451623356e-05 -3.925343516241e-09 -3.225312319270e+05 -1.626255850989e-06 -1.386485716919e+05 -1.386485716760e+05 -9.341239140748e-06 -1.652275944605e-16 -8.038485738022e-16 0.000000000000e+00 0.000000000000e+00 
4.000000000000e+00 5.000000000000e+00 0.000000000000e+00 2.981276639361e+02 1.039505376251e-05 -3.925343486480e-09 -3.225312319462e+05 2.091862066025e-06 -1.147027712879e+05 -1.147027712886e+05 -1.055768580140e-05 2.125331859081e-16 3.740516766078e-17 0.000000000000e+00 0.000000000000e+00 
5.000000000000e+00 5.000000000000e+00 0.000000000000e+00 2.981588244057e+02 9.579799201974e-16 -3.925343474369e-09 -3.225312319391e+05 -2.500099654624e-06 -1.211056075033e+05 -1.211056074980e+05 -1.023242172161e-05 -2.540101249098e-16 -2.703210366643e-16 0.000000000000e+00 0.000000000000e+00 
0.000000000000e+00 4.000000000000e+00 0.000000000000e+00 3.080000000000e+02 0.000000000000e+00 -3.768329674653e-09 -3.225348603025e+05 -4.929949232473e-08 -2.143274786196e+06 -2.143268604554e+06 9.249327420796e-05 -5.008828420193e-18 -3.140274135140e-10 0.000000000000e+00 0.000000000000e+00 
1.000000000000e+00 4.000000000000e+00 0.000000000000e+00 2.984166783212e+02 4.247621174761e-05 -3.768329693384e-09 -3.225348603009e+05 -1.066830177516e-06 -1.740990987807e+05 -1.740929171370e+05 -7.540850712728e-06 -1.083899460356e-16 -3.140275021841e-10 0.000000000000e+00 0.000000000000e+00 
2.000000000000e+00 4.000000000000e+00 0.000000000000e+00 2.978275242650e+02 3.186046109743e-05 -3.768329704756e-09 -3.225348602978e+05 2.145950267156e-06 -5.304004612411e+04 -5.303386447765e+04 -1.369065058767e-05 2.180285471430e-16 -3.140276401440e-10 0.000000000000e+00 0.000000000000e+00 
3.000000000000e+00 4.000000000000e+00 0.000000000000e+00 2.982442001649e+02 2.034451623358e-05 -3.768329595804e-09 -3.225348603094e+05 3.983066684339e-07 -1.386583817087e+05 -1.386522000729e+05 -9.341239140012e-06 4.046795751288e-17 -3.140270977289e-10 0.000000000000e+00 0.000000000000e+00 
4.000000000000e+00 4.000000000000e+00 0.000000000000e+00 2.981276639360e+02 1.039505376254e-05 -3.768329681814e-09 -3.225348602976e+05 -1.620518457697e-06 -1.147125812733e+05 -1.147063996269e+05 -1.055768580207e-05 -1.646446753020e-16 -3.140276374882e-10 0.000000000000e+00 0.000000000000e+00 
5.000000000000e+00 4.000000000000e+00 0.000000000000e+00 2.981588244058e+02 1.016795467264e-15 -3.768329708163e-09 -3.225348603063e+05 -1.369877882171e-06 -1.211154175160e+05 -1.211092358773e+05 -1.023242172099e-05 -1.391795928285e-16 -3.140272431650e-10 0.000000000000e+00 0.000000000000e+00 
0.000000000000e+00 3.000000000000e+00 0.000000000000e+00 3.080000000000e+02 0.000000000000e+00 -3.297288498376e-09 -3.225384886587e+05 2.666129783369e-08 -2.143284596196e+06 -2.143272232910e+06 9.249327420796e-05 2.708787859903e-18 -6.280549201743e-10 0.000000000000e+00 0.000000000000e+00 
1.000000000000e+00 3.000000000000e+00 0.000000000000e+00 2.984166783212e+02 4.247621174759e-05 -3.297288484429e-09 -3.225384886588e+05 7.302758275645e-07 -1.741089087797e+05 -1.740965454938e+05 -7.540850712780e-06 7.419602408055e-17 -6.280549191425e-10 0.000000000000e+00 0.000000000000e+00 
2.000000000000e+00 3.000000000000e+00 0.000000000000e+00 2.978275242650e+02 3.186046109741e-05 -3.297288443351e-09 -3.225384886585e+05 3.189225801497e-07 -5.304985612617e+04 -5.303749284012e+04 -1.369065058757e-05 3.240253414321e-17 -6.280549315161e-10 0.000000000000e+00 0.000000000000e+00 
3.000000000000e+00 3.000000000000e+00 0.000000000000e+00 2.982442001648e+02 2.034451623356e-05 -3.297288426775e-09 -3.225384886534e+05 -8.337978733506e-08 -1.386681917058e+05 -1.386558284147e+05 -9.341239140126e-06 -8.471386393242e-18 -6.280551868707e-10 0.000000000000e+00 0.000000000000e+00 
4.000000000000e+00 3.000000000000e+00 0.000000000000e+00 2.981276639361e+02 1.039505376258e-05 -3.297288410321e-09 -3.225384886586e+05 -1.493753580791e-07 -1.147223912779e+05 -1.147100279924e+05 -1.055768580184e-05 -1.517653638084e-17 -6.280549033272e-10 0.000000000000e+00 0.000000000000e+00 
5.000000000000e+00 3.000000000000e+00 0.000000000000e+00 2.981588244057e+02 1.132999930486e-15 -3.297288461383e-09 -3.225384886519e+05 -1.703030641781e-06 -1.211252275141e+05 -1.211128642215e+05 -1.023242172106e-05 -1.730279132049e-16 -6.280552611268e-10 0.000000000000e+00 0.000000000000e+00 
0.000000000000e+00 2.000000000000e+00 0.000000000000e+00 3.080000000000e+02 0.000000000000e+00 -2.512219834788e-09 -3.225421170145e+05 -1.338842337006e-07 -2.143294406195e+06 -2.143275861266e+06 9.249327420797e-05 -1.360263814398e-17 -9.420824154101e-10 0.000000000000e+00 0.000000000000e+00 
1.000000000000e+00 2.000000000000e+00 0.000000000000e+00 2.984166783212e+02 4.247621174757e-05 -2.512219835041e-09 -3.225421170159e+05 3.524479766282e-07 -1.741187187780e+05 -1.741001738497e+05 -7.540850712840e-06 3.580871442542e-17 -9.420823573744e-10 0.000000000000e+00 0.000000000000e+00 
2.000000000000e+00 2.000000000000e+00 0.000000000000e+00 2.978275242650e+02 3.186046109732e-05 -2.512219762841e-09 -3.225421170157e+05 3.246686216042e-06 -5.305966612481e+04 -5.304112119552e+04 -1.369065058767e-05 3.298633195498e-16 -9.420824079610e-10 0.000000000000e+00 0.000000000000e+00 
3.000000000000e+00 2.000000000000e+00 0.000000000000e+00 2.982442001648e+02 2.034451623345e-05 -2.512219505945e-09 -3.225421170104e+05 7.690487112012e-06 -1.386780017088e+05 -1.386594567745e+05 -9.341239139982e-06 7.813534905804e-16 -9.420826607165e-10 0.000000000000e+00 0.000000000000e+00 
4.000000000000e+00 2.000000000000e+00 0.000000000000e+00 2.981276639360e+02 1.039505376262e-05 -2.512219256981e-09 -3.225421169925e+05 -1.390401691548e-06 -1.147322012784e+05 -1.147136563280e+05 -1.055768580176e-05 -1.412648118612e-16 -9.420834840032e-10 0.000000000000e+00 0.000000000000e+00 
5.000000000000e+00 2.000000000000e+00 0.000000000000e+00 2.981588244058e+02 1.292585400359e-15 -2.512219561243e-09 -3.225421170138e+05 -7.703129452423e-06 -1.211350375171e+05 -1.211164925859e+05 -1.023242172094e-05 -7.826379523662e-16 -9.420825080455e-10 0.000000000000e+00 0.000000000000e+00 
0.000000000000e+00 1.000000000000e+00 0.000000000000e+00 3.080000000000e+02 0.000000000000e+00 -1.413123637514e-09 -3.225457453698e+05 7.228373941725e-07 -2.143304216197e+06 -2.143279489622e+06 9.249327420802e-05 7.344027924793e-17 -1.256109993015e-09 0.000000000000e+00 0.000000000000e+00 
1.000000000000e+00 1.000000000000e+00 0.000000000000e+00 2.984166783212e+02 4.247621174762e-05 -1.413123681326e-09 -3.225457453691e+05 -4.461755880443e-06 -1.741285287785e+05 -1.741038022038e+05 -7.540850712799e-06 -4.533143974530e-16 -1.256109995607e-09 0.000000000000e+00 0.000000000000e+00 
2.000000000000e+00 1.000000000000e+00 0.000000000000e+00 2.978275242650e+02 3.186046109716e-05 -1.413123842341e-09 -3.225457453826e+05 1.677298152016e-06 -5.306947611589e+04 -5.304474955398e+04 -1.369065058809e-05 1.704134922448e-16 -1.256109344971e-09 0.000000000000e+00 0.000000000000e+00 
3.000000000000e+00 1.000000000000e+00 0.000000000000e+00 2.982442001648e+02 2.034451623294e-05 -1.413123454470e-09 -3.225457453798e+05 1.169416195134e-05 -1.386878117001e+05 -1.386630851358e+05 -9.341239140392e-06 1.188126854256e-15 -1.256109462855e-09 0.000000000000e+00 0.000000000000e+00 
4.000000000000e+00 1.000000000000e+00 0.000000000000e+00 2.981276639363e+02 1.039505376267e-05 -1.413123124787e-09 -3.225457453952e+05 1.083858150259e-06 -1.147420113137e+05 -1.147172847632e+05 -1.055768580011e-05 1.101199880663e-16 -1.256108768113e-09 0.000000000000e+00 0.000000000000e+00 
5.000000000000e+00 1.000000000000e+00 0.000000000000e+00 2.981588244057e+02 1.726225523516e-15 -1.413123308103e-09 -3.225457453679e+05 -6.252793250545e-06 -1.211448475001e+05 -1.211201209246e+05 -1.023242172172e-05 -6.352837942553e-16 -1.256110036470e-09 0.000000000000e+00 0.000000000000e+00 
0.000000000000e+00 0.000000000000e+00 0.000000000000e+00 3.080000000000e+02 0.000000000000e+00 0.000000000000e+00 -3.225493737310e+05 5.353907585555e-07 -2.143314026192e+06 -2.143283117979e+06 9.249327420778e-05 5.439570106924e-17 -1.570137267793e-09 0.000000000000e+00 0.000000000000e+00 
1.000000000000e+00 0.000000000000e+00 0.000000000000e+00 2.984166783213e+02 4.247621174780e-05 0.000000000000e+00 -3.225493737294e+05 -1.814695993301e-06 -1.741383387931e+05 -1.741074305777e+05 -7.540850712107e-06 -1.843731129194e-16 -1.570137344744e-09 0.000000000000e+00 0.000000000000e+00 
2.000000000000e+00 0.000000000000e+00 0.000000000000e+00 2.978275242647e+02 3.186046109715e-05 0.000000000000e+00 -3.225493737057e+05 -4.168002051967e-07 -5.307928609057e+04 -5.304837785381e+04 -1.369065058928e-05 -4.234690084798e-17 -1.570138427367e-09 0.000000000000e+00 0.000000000000e+00 
3.000000000000e+00 0.000000000000e+00 0.000000000000e+00 2.982442001648e+02 2.034451623267e-05 0.000000000000e+00 -3.225493737272e+05 6.895011675476e-07 -1.386976217130e+05 -1.386667134959e+05 -9.341239139751e-06 7.005331862284e-17 -1.570137429940e-09 0.000000000000e+00 0.000000000000e+00 
4.000000000000e+00 0.000000000000e+00 0.000000000000e+00 2.981276639362e+02 1.039505376258e-05 0.000000000000e+00 -3.225493737280e+05 9.646195793048e-07 -1.147518213083e+05 -1.147209130912e+05 -1.055768580035e-05 9.800534925737e-17 -1.570137425651e-09 0.000000000000e+00 0.000000000000e+00 
5.000000000000e+00 0.000000000000e+00 0.000000000000e+00 2.981588244058e+02 1.793841818607e-15 0.000000000000e+00 -3.225493737452e+05 1.313977975112e-06 -1.211546575118e+05 -1.211237493120e+05 -1.023242172121e-05 1.335001622714e-16 -1.570136552910e-09 0.000000000000e+00 0.000000000000e+00 
6.000000000000e+00 9.000000000000e+00 0.000000000000e+00 2.981276639362e+02 -1.039505376017e-05 -1.413123862557e-09 -3.225167185132e+05 -1.733887472409e-06 -1.146635313180e+05 -1.146882578880e+05 -1.055768579976e-05 -1.761629671967e-16 1.256109756119e-09 0.000000000000e+00 0.000000000000e+00 
6.000000000000e+00 1.000000000000e+01 0.000000000000e+00 2.981276639362e+02 -1.039505376020e-05 0.000000000000e+00 -3.225130901700e+05 -4.655855514891e-07 -1.146537213086e+05 -1.146846295351e+05 -1.055768580025e-05 -4.730349203129e-17 1.570137908566e-09 0.000000000000e+00 0.000000000000e+00 
7.000000000000e+00 9.000000000000e+00 0.000000000000e+00 2.982442001649e+02 -2.034451623010e-05 -1.413124057114e-09 -3.225167185319e+05 7.401738520030e-06 -1.386093317049e+05 -1.386340582922e+05 -9.341239140177e-06 7.520166336350e-16 1.256110634389e-09 0.000000000000e+00 0.000000000000e+00 
7.000000000000e+00 1.000000000000e+01 0.000000000000e+00 2.982442001649e+02 -2.034451622982e-05 0.000000000000e+00 -3.225130901648e+05 3.577462119375e-06 -1.385995217335e+05 -1.386304299532e+05 -9.341239138747e-06 3.634701513285e-16 1.570137561060e-09 0.000000000000e+00 0.000000000000e+00 
8.000000000000e+00 9.000000000000e+00 0.000000000000e+00 2.978275242647e+02 -3.186046109565e-05 -1.413123796579e-09 -3.225167185316e+05 -1.841905570519e-05 -5.299099606238e+04 -5.301572264920e+04 -1.369065059082e-05 -1.871376059647e-15 1.256110610347e-09 0.000000000000e+00 0.000000000000e+00 
8.000000000000e+00 1.000000000000e+01 0.000000000000e+00 2.978275242642e+02 -3.186046109629e-05 0.000000000000e+00 -3.225130901401e+05 -4.692344315827e-06 -5.298118598175e+04 -5.301209418415e+04 -1.369065059456e-05 -4.767421824881e-16 1.570136681953e-09 0.000000000000e+00 0.000000000000e+00 
9.000000000000e+00 9.000000000000e+00 0.000000000000e+00 2.984166783212e+02 -4.247621174749e-05 -1.413125326881e-09 -3.225167185126e+05 -2.031607006710e-05 -1.740500487759e+05 -1.740747753451e+05 -7.540850712911e-06 -2.064112718818e-15 1.256109714020e-09 0.000000000000e+00 0.000000000000e+00 
9.000000000000e+00 1.000000000000e+01 0.000000000000e+00 2.984166783220e+02 -4.247621174810e-05 0.000000000000e+00 -3.225130902419e+05 -3.253232451707e-06 -1.740402388594e+05 -1.740711471509e+05 -7.540850709024e-06 -3.305284170934e-16 1.570141207239e-09 0.000000000000e+00 0.000000000000e+00 
1.000000000000e+01 9.000000000000e+00 0.000000000000e+00 3.080000000000e+02 0.000000000000e+00 -1.413125229005e-09 -3.225167185229e+05 9.179132961614e-06 -2.143225736195e+06 -2.143250462773e+06 9.249327420791e-05 9.325999089000e-16 1.256110169483e-09 0.000000000000e+00 0.000000000000e+00 
1.000000000000e+01 1.000000000000e+01 0.000000000000e+00 3.080000000000e+02 0.000000000000e+00 0.000000000000e+00 -3.225130902160e+05 3.300223518370e-06 -2.143215926144e+06 -2.143246834416e+06 9.249327420538e-05 3.353027094664e-16 1.570140253882e-09 0.000000000000e+00 0.000000000000e+00 
6.000000000000e+00 8.000000000000e+00 0.000000000000e+00 2.981276639365e+02 -1.039505376012e-05 -2.512220262777e-09 -3.225203468893e+05 -2.857931716328e-07 -1.146733413582e+05 -1.146918863010e+05 -1.055768579788e-05 -2.903658623790e-17 9.420830940644e-10 0.000000000000e+00 0.000000000000e+00 
7.000000000000e+00 8.000000000000e+00 0.000000000000e+00 2.982442001645e+02 -2.034451623013e-05 -2.512220346189e-09 -3.225203468596e+05 -3.111659994458e-06 -1.386191416622e+05 -1.386376865799e+05 -9.341239142210e-06 -3.161446554370e-16 9.420818196728e-10 0.000000000000e+00 0.000000000000e+00 
8.000000000000e+00 8.000000000000e+00 0.000000000000e+00 2.978275242651e+02 -3.186046109513e-05 -2.512220549049e-09 -3.225203468951e+05 -5.271114371880e-06 -5.300080612806e+04 -5.301935107431e+04 -1.369065058770e-05 -5.355452201830e-16 9.420832695002e-10 0.000000000000e+00 0.000000000000e+00 
9.000000000000e+00 8.000000000000e+00 0.000000000000e+00 2.984166783208e+02 -4.247621174687e-05 -2.512220800796e-09 -3.225203468406e+05 -3.567040884981e-06 -1.740598587184e+05 -1.740784036182e+05 -7.540850715699e-06 -3.624113539140e-16 9.420809090995e-10 0.000000000000e+00 0.000000000000e+00 
1.000000000000e+01 8.000000000000e+00 0.000000000000e+00 3.080000000000e+02 0.000000000000e+00 -2.512220884244e-09 -3.225203468514e+05 -1.474702363602e-07 -2.143235546223e+06 -2.143254091129e+06 9.249327420932e-05 -1.498297601419e-17 9.420812448421e-10 0.000000000000e+00 0.000000000000e+00 
6.000000000000e+00 7.000000000000e+00 0.000000000000e+00 2.981276639363e+02 -1.039505376010e-05 -3.297289167066e-09 -3.225239752272e+05 -1.849420614448e-06 -1.146831513240e+05 -1.146955146071e+05 -1.055768579950e-05 -1.879011344279e-16 6.280547803467e-10 0.000000000000e+00 0.000000000000e+00 
7.000000000000e+00 7.000000000000e+00 0.000000000000e+00 2.982442001649e+02 -2.034451622995e-05 -3.297289086509e-09 -3.225239752457e+05 -3.399864340311e-06 -1.386289517067e+05 -1.386413150066e+05 -9.341239140146e-06 -3.454262169756e-16 6.280556375407e-10 0.000000000000e+00 0.000000000000e+00 
8.000000000000e+00 7.000000000000e+00 0.000000000000e+00 2.978275242647e+02 -3.186046109504e-05 -3.297289390327e-09 -3.225239752202e+05 7.688528857680e-07 -5.301061607661e+04 -5.302297935342e+04 -1.369065059003e-05 7.811545319403e-17 6.280544617814e-10 0.000000000000e+00 0.000000000000e+00 
9.000000000000e+00 7.000000000000e+00 0.000000000000e+00 2.984166783212e+02 -4.247621174702e-05 -3.297289032268e-09 -3.225239752428e+05 5.907109133968e-06 -1.740696687565e+05 -1.740820320543e+05 -7.540850713973e-06 6.001622880112e-16 6.280555293105e-10 0.000000000000e+00 0.000000000000e+00 
1.000000000000e+01 7.000000000000e+00 0.000000000000e+00 3.080000000000e+02 0.000000000000e+00 -3.297289069263e-09 -3.225239752325e+05 -2.643895343626e-06 -2.143245356196e+06 -2.143257719485e+06 9.249327420802e-05 -2.686197669124e-16 6.280550683309e-10 0.000000000000e+00 0.000000000000e+00 
6.000000000000e+00 6.000000000000e+00 0.000000000000e+00 2.981276639362e+02 -1.039505375992e-05 -3.768330220754e-09 -3.225276035832e+05 -4.322404954337e-06 -1.146929613204e+05 -1.146991429591e+05 -1.055768579970e-05 -4.391563433606e-16 3.140272447411e-10 0.000000000000e+00 0.000000000000e+00 
7.000000000000e+00 6.000000000000e+00 0.000000000000e+00 2.982442001648e+02 -2.034451622985e-05 -3.768330375821e-09 -3.225276035800e+05 -1.206728491120e-06 -1.386387617056e+05 -1.386449433407e+05 -9.341239140154e-06 -1.226036146978e-16 3.140270658324e-10 0.000000000000e+00 0.000000000000e+00 
8.000000000000e+00 6.000000000000e+00 0.000000000000e+00 2.978275242647e+02 -3.186046109507e-05 -3.768330384518e-09 -3.225276035851e+05 2.018844458601e-07 -5.302042607256e+04 -5.302660771341e+04 -1.369065059028e-05 2.051145969938e-17 3.140273551170e-10 0.000000000000e+00 0.000000000000e+00 
9.000000000000e+00 6.000000000000e+00 0.000000000000e+00 2.984166783211e+02 -4.247621174712e-05 -3.768330384322e-09 -3.225276035845e+05 3.017406963338e-07 -1.740794787590e+05 -1.740856603987e+05 -7.540850713838e-06 3.065685474752e-17 3.140272961930e-10 0.000000000000e+00 0.000000000000e+00 
1.000000000000e+01 6.000000000000e+00 0.000000000000e+00 3.080000000000e+02 0.000000000000e+00 -3.768330352800e-09 -3.225276035875e+05 5.172654900890e-07 -2.143255166199e+06 -2.143261347841e+06 9.249327420810e-05 5.255417379304e-17 3.140274593161e-10 0.000000000000e+00 0.000000000000e+00 
6.000000000000e+00 5.000000000000e+00 0.000000000000e+00 2.981276639362e+02 -1.039505375973e-05 -3.925343708625e-09 -3.225312319400e+05 -5.138123335907e-06 -1.147027713185e+05 -1.147027713139e+05 -1.055768579981e-05 -5.220333309282e-16 -2.342595214625e-16 0.000000000000e+00 0.000000000000e+00 
7.000000000000e+00 5.000000000000e+00 0.000000000000e+00 2.982442001648e+02 -2.034451622976e-05 -3.925343882136e-09 -3.225312319425e+05 -2.466745897302e-06 -1.386485717037e+05 -1.386485717015e+05 -9.341239140244e-06 -2.506213831659e-16 -1.108560241839e-16 0.000000000000e+00 0.000000000000e+00 
8.000000000000e+00 5.000000000000e+00 0.000000000000e+00 2.978275242647e+02 -3.186046109503e-05 -3.925343975937e-09 -3.225312319425e+05 -1.125720445351e-06 -5.303023607253e+04 -5.303023607039e+04 -1.369065059030e-05 -1.143731972476e-16 -1.087148805452e-16 0.000000000000e+00 0.000000000000e+00 
9.000000000000e+00 5.000000000000e+00 0.000000000000e+00 2.984166783211e+02 -4.247621174713e-05 -3.925344003283e-09 -3.225312319428e+05 -1.897445558579e-07 -1.740892887578e+05 -1.740892887559e+05 -7.540850713891e-06 -1.927804687516e-17 -9.658005781804e-17 0.000000000000e+00 0.000000000000e+00 
1.000000000000e+01 5.000000000000e+00 0.000000000000e+00 3.080000000000e+02 0.000000000000e+00 -3.925344010298e-09 -3.225312319430e+05 -1.428069675554e-08 -2.143264976200e+06 -2.143264976198e+06 9.249327420815e-05 -1.450918790363e-18 -1.108075917760e-16 0.000000000000e+00 0.000000000000e+00 
6.000000000000e+00 4.000000000000e+00 0.000000000000e+00 2.981276639362e+02 -1.039505375948e-05 -3.768329874267e-09 -3.225348603019e+05 -4.139060446611e-06 -1.147125813153e+05 -1.147063996727e+05 -1.055768579996e-05 -4.205285413757e-16 -3.140274444029e-10 0.000000000000e+00 0.000000000000e+00 
7.000000000000e+00 4.000000000000e+00 0.000000000000e+00 2.982442001648e+02 -2.034451622962e-05 -3.768330044925e-09 -3.225348602995e+05 -2.382049346470e-06 -1.386583817012e+05 -1.386522000565e+05 -9.341239140346e-06 -2.420162136014e-16 -3.140275541559e-10 0.000000000000e+00 0.000000000000e+00 
8.000000000000e+00 4.000000000000e+00 0.000000000000e+00 2.978275242647e+02 -3.186046109498e-05 -3.768330129323e-09 -3.225348602992e+05 -1.047795907815e-06 -5.304004607170e+04 -5.303386442596e+04 -1.369065059036e-05 -1.064560642340e-16 -3.140276036341e-10 0.000000000000e+00 0.000000000000e+00 
9.000000000000e+00 4.000000000000e+00 0.000000000000e+00 2.984166783211e+02 -4.247621174711e-05 -3.768330164711e-09 -3.225348602995e+05 -3.813673714846e-07 -1.740990987575e+05 -1.740929171124e+05 -7.540850713908e-06 -3.874692494283e-17 -3.140275735437e-10 0.000000000000e+00 0.000000000000e+00 
1.000000000000e+01 4.000000000000e+00 0.000000000000e+00 3.080000000000e+02 0.000000000000e+00 -3.768330167189e-09 -3.225348602991e+05 7.755511281284e-08 -2.143274786199e+06 -2.143268604554e+06 9.249327420813e-05 7.879599461784e-18 -3.140275793583e-10 0.000000000000e+00 0.000000000000e+00 
6.000000000000e+00 3.000000000000e+00 0.000000000000e+00 2.981276639362e+02 -1.039505375933e-05 -3.297288595599e-09 -3.225384886546e+05 -3.097414011211e-06 -1.147223913171e+05 -1.147100280274e+05 -1.055768579986e-05 -3.146972635390e-16 -6.280551182091e-10 0.000000000000e+00 0.000000000000e+00 
7.000000000000e+00 3.000000000000e+00 0.000000000000e+00 2.982442001648e+02 -2.034451622948e-05 -3.297288773987e-09 -3.225384886573e+05 -4.260860053451e-06 -1.386681916997e+05 -1.386558284122e+05 -9.341239140448e-06 -4.329033814306e-16 -6.280550010915e-10 0.000000000000e+00 0.000000000000e+00 
8.000000000000e+00 3.000000000000e+00 0.000000000000e+00 2.978275242647e+02 -3.186046109493e-05 -3.297288925790e-09 -3.225384886619e+05 -6.760659459111e-07 -5.304985607019e+04 -5.303749278723e+04 -1.369065059043e-05 -6.868830010457e-17 -6.280547742400e-10 0.000000000000e+00 0.000000000000e+00 
9.000000000000e+00 3.000000000000e+00 0.000000000000e+00 2.984166783211e+02 -4.247621174713e-05 -3.297288849908e-09 -3.225384886556e+05 2.126102147901e-06 -1.741089087561e+05 -1.740965454675e+05 -7.540850713959e-06 2.160119782267e-16 -6.280550637727e-10 0.000000000000e+00 0.000000000000e+00 
1.000000000000e+01 3.000000000000e+00 0.000000000000e+00 3.080000000000e+02 0.000000000000e+00 -3.297288803091e-09 -3.225384886540e+05 4.700110206501e-09 -2.143284596201e+06 -2.143272232910e+06 9.249327420821e-05 4.775311969805e-19 -6.280551694715e-10 0.000000000000e+00 0.000000000000e+00 
6.000000000000e+00 2.000000000000e+00 0.000000000000e+00 2.981276639362e+02 -1.039505375914e-05 -2.512219794447e-09 -3.225421170139e+05 -3.597229878415e-06 -1.147322013168e+05 -1.147136563863e+05 -1.055768579988e-05 -3.654785556470e-16 -9.420824703666e-10 0.000000000000e+00 0.000000000000e+00 
7.000000000000e+00 2.000000000000e+00 0.000000000000e+00 2.982442001648e+02 -2.034451622925e-05 -2.512220009049e-09 -3.225421170132e+05 -4.298261230007e-06 -1.386780017017e+05 -1.386594567703e+05 -9.341239140340e-06 -4.367033409688e-16 -9.420825121588e-10 0.000000000000e+00 0.000000000000e+00 
8.000000000000e+00 2.000000000000e+00 0.000000000000e+00 2.978275242646e+02 -3.186046109494e-05 -2.512220096760e-09 -3.225421170056e+05 2.052363476954e-06 -5.305966605828e+04 -5.304112111956e+04 -1.369065059101e-05 2.085201292585e-16 -9.420828869270e-10 0.000000000000e+00 0.000000000000e+00 
9.000000000000e+00 2.000000000000e+00 0.000000000000e+00 2.984166783211e+02 -4.247621174726e-05 -2.512219902138e-09 -3.225421170063e+05 2.820903836169e-06 -1.741187187617e+05 -1.741001738238e+05 -7.540850713675e-06 2.866038297548e-16 -9.420828456870e-10 0.000000000000e+00 0.000000000000e+00 
1.000000000000e+01 2.000000000000e+00 0.000000000000e+00 3.080000000000e+02 0.000000000000e+00 -2.512219875085e-09 -3.225421170100e+05 -7.683026610459e-07 -2.143294406201e+06 -2.143275861266e+06 9.249327420821e-05 -7.805955036227e-17 -9.420826821900e-10 0.000000000000e+00 0.000000000000e+00 
6.000000000000e+00 1.000000000000e+00 0.000000000000e+00 2.981276639363e+02 -1.039505375894e-05 -1.413123563930e-09 -3.225457453694e+05 -5.699292570699e-06 -1.147420113203e+05 -1.147172847456e+05 -1.055768579969e-05 -5.790481251831e-16 -1.256109994504e-09 0.000000000000e+00 0.000000000000e+00 
7.000000000000e+00 1.000000000000e+00 0.000000000000e+00 2.982442001648e+02 -2.034451622907e-05 -1.413123821036e-09 -3.225457453721e+05 -5.187764510263e-06 -1.386878116967e+05 -1.386630851249e+05 -9.341239140560e-06 -5.270768742427e-16 -1.256109849237e-09 0.000000000000e+00 0.000000000000e+00 
8.000000000000e+00 1.000000000000e+00 0.000000000000e+00 2.978275242647e+02 -3.186046109506e-05 -1.413123903611e-09 -3.225457453796e+05 3.380088283669e-06 -5.306947604993e+04 -5.304474948538e+04 -1.369065059143e-05 3.434169696208e-16 -1.256109479132e-09 0.000000000000e+00 0.000000000000e+00 
9.000000000000e+00 1.000000000000e+00 0.000000000000e+00 2.984166783212e+02 -4.247621174737e-05 -1.413123635556e-09 -3.225457453752e+05 4.026334807137e-06 -1.741285287714e+05 -1.741038022025e+05 -7.540850713175e-06 4.090756164051e-16 -1.256109702708e-09 0.000000000000e+00 0.000000000000e+00 
1.000000000000e+01 1.000000000000e+00 0.000000000000e+00 3.080000000000e+02 0.000000000000e+00 -1.413123603141e-09 -3.225457453719e+05 -9.143902844928e-07 -2.143304216194e+06 -2.143279489622e+06 9.249327420791e-05 -9.290205290446e-17 -1.256109864664e-09 0.000000000000e+00 0.000000000000e+00 
6.000000000000e+00 0.000000000000e+00 0.000000000000e+00 2.981276639363e+02 -1.039505375873e-05 0.000000000000e+00 -3.225493737329e+05 -1.410689673363e-06 -1.147518213186e+05 -1.147209131073e+05 -1.055768579978e-05 -1.433260708137e-16 -1.570137135625e-09 0.000000000000e+00 0.000000000000e+00 
7.000000000000e+00 0.000000000000e+00 0.000000000000e+00 2.982442001647e+02 -2.034451622888e-05 0.000000000000e+00 -3.225493737190e+05 -1.488408365326e-06 -1.386976216972e+05 -1.386667134724e+05 -9.341239140529e-06 -1.512222899171e-16 -1.570137820931e-09 0.000000000000e+00 0.000000000000e+00 
8.000000000000e+00 0.000000000000e+00 0.000000000000e+00 2.978275242645e+02 -3.186046109513e-05 0.000000000000e+00 -3.225493737068e+05 2.914627245846e-07 -5.307928603557e+04 -5.304837779994e+04 -1.369065059207e-05 2.961261281779e-17 -1.570138370149e-09 0.000000000000e+00 0.000000000000e+00 
9.000000000000e+00 0.000000000000e+00 0.000000000000e+00 2.984166783212e+02 -4.247621174753e-05 0.000000000000e+00 -3.225493737258e+05 1.361378870590e-06 -1.741383387809e+05 -1.741074305616e+05 -7.540850712739e-06 1.383160932519e-16 -1.570137539902e-09 0.000000000000e+00 0.000000000000e+00 
1.000000000000e+01 0.000000000000e+00 0.000000000000e+00 3.080000000000e+02 0.000000000000e+00 0.000000000000e+00 -3.225493737295e+05 -1.175914585334e-07 -2.143314026193e+06 -2.143283117978e+06 9.249327420784e-05 -1.194729218699e-17 -1.570137324842e-09 0.000000000000e+00 0.000000000000e+00 
1  2  3  4  
4  3  5  6  
6  5  7  8  
8  7  9  10  
10  9  11  12  
2  13  14  3  
3  14  15  5  
5  15  16  7  
7  16  17  9  
9  17  18  11  
13  19  20  14  
14  20  21  15  
15  21  22  16  
16  22  23  17  
17  23  24  18  
19  25  26  20  
20  26  27  21  
21  27  28  22  
22  28  29  23  
23  29  30  24  
25  31  32  26  
26  32  33  27  
27  33  34  28  
28  34  35  29  
29  35  36  30  
31  37  38  32  
32  38  39  33  
33  39  40  34  
34  40  41  35  
35  41  42  36  
37  43  44  38  
38  44  45  39  
39  45  46  40  
40  46  47  41  
41  47  48  42  
43  49  50  44  
44  50  51  45  
45  51  52  46  
46  52  53  47  
47  53  54  48  
49  55  56  50  
50  56  57  51  
51  57  58  52  
52  58  59  53  
53  59  60  54  
55  61  62  56  
56  62  63  57  
57  63  64  58  
58  64  65  59  
59  65  66  60  
12  11  67  68  
68  67  69  70  
70  69  71  72  
72  71  73  74  
74  73  75  76  
11  18  77  67  
67  77  78  69  
69  78  79  71  
71  79  80  73  
73  80  81  75  
18  24  82  77  
77  82  83  78  
78  83  84  79  
79  84  85  80  
80  85  86  81  
24  30  87  82  
82  87  88  83  
83  88  89  84  
84  89  90  85  
85  90  91  86  
30  36  92  87  
87  92  93  88  
88  93  94  89  
89  94  95  90  
90  95  96  91  
36  42  97  92  
92  97  98  93  
93  98  99  94  
94  99  100  95  
95  100  101  96  
42  48  102  97  
97  102  103  98  
98  103  104  99  
99  104  105  100  
100  105  106  101  
48  54  107  102  
102  107  108  103  
103  108  109  104  
104  109  110  105  
105  110  111  106  
54  60  112  107  
107  112  113  108  
108  113  114  109  
109  114  115  110  
110  115  116  111  
60  66  117  112  
112  117  118  113  
113  118  119  114  
114  119  120  115  
115  120  121  116  
VARIABLES  = "X","Y","Z", "TEMPERATURE1", "DISPLACEMENT_X1", "DISPLACEMENT_Y1", "STRESS_XX", "STRESS_XY", "STRESS_YY", "STRESS_ZZ", "STRAIN_XX", "STRAIN_XY", "STRAIN_YY", "STRAIN_ZZ", "STRAIN_PLS"
ZONE T="3.000000000000e-01s", N=121, E=100, F=FEPOINT, ET=QUADRILATERAL
STRANDID=1, SOLUTIONTIME=3.000000000000e-01
0.000000000000e+00 1.000000000000e+01 0.000000000000e+00 3.080000000000e+02 0.000000000000e+00 0.000000000000e+00 -3.939828705429e+05 -1.662875576867e-06 -2.169649954515e+06 -2.169680862765e+06 9.020545800488e-05 -1.689481586097e-16 1.570139084906e-09 0.000000000000e+00 0.000000000000e+00 
0.000000000000e+00 9.000000000000e+00 0.000000000000e+00 3.080000000000e+02 0.000000000000e+00 -1.413124525325e-09 -3.939864988676e+05 -5.182196728540e-06 -2.169659764550e+06 -2.169684491122e+06 9.020545800652e-05 -5.265111876196e-16 1.256109866332e-09 0.000000000000e+00 0.000000000000e+00 
1.000000000000e+00 9.000000000000e+00 0.000000000000e+00 2.995955737283e+02 4.634126061603e-05 -1.413124796960e-09 -3.939864988634e+05 -2.723240194032e-06 -4.427228594120e+05 -4.427475859807e+05 2.477063225561e-06 -2.766812037137e-16 1.256109689237e-09 0.000000000000e+00 0.000000000000e+00 
1.000000000000e+00 1.000000000000e+01 0.000000000000e+00 2.995955737288e+02 4.634126061608e-05 0.000000000000e+00 -3.939828705706e+05 -7.914023936903e-07 -4.427130494477e+05 -4.427439577180e+05 2.477063227092e-06 -8.040648319894e-17 1.570140131585e-09 0.000000000000e+00 0.000000000000e+00 
2.000000000000e+00 9.000000000000e+00 0.000000000000e+00 2.977897838374e+02 3.939358482166e-05 -1.413123715767e-09 -3.939864988818e+05 5.986679196156e-05 -7.167014209130e+04 -7.169486867769e+04 -1.637241481437e-05 6.082466063294e-15 1.256110588467e-09 0.000000000000e+00 0.000000000000e+00 
2.000000000000e+00 1.000000000000e+01 0.000000000000e+00 2.977897838376e+02 3.939358482347e-05 0.000000000000e+00 -3.939828705094e+05 1.204936379218e-05 -7.166033215149e+04 -7.169124036164e+04 -1.637241481151e-05 1.224215361285e-15 1.570137075683e-09 0.000000000000e+00 0.000000000000e+00 
3.000000000000e+00 9.000000000000e+00 0.000000000000e+00 2.981754532447e+02 2.503404732411e-05 -1.413121350942e-09 -3.939864988928e+05 9.132213243757e-06 -1.509172805511e+05 -1.509420071477e+05 -1.234666018065e-05 9.278328655657e-16 1.256111109723e-09 0.000000000000e+00 0.000000000000e+00 
3.000000000000e+00 1.000000000000e+01 0.000000000000e+00 2.981754532432e+02 2.503404732426e-05 0.000000000000e+00 -3.939828703694e+05 -7.606130891654e-07 -1.509074704004e+05 -1.509383784891e+05 -1.234666018752e-05 -7.727828985920e-17 1.570130906483e-09 0.000000000000e+00 0.000000000000e+00 
4.000000000000e+00 9.000000000000e+00 0.000000000000e+00 2.981601308719e+02 1.260741695233e-05 -1.413123094978e-09 -3.939864988628e+05 -5.146956934332e-05 -1.477688478267e+05 -1.477935743952e+05 -1.250660056296e-05 -5.229308245281e-15 1.256109678996e-09 0.000000000000e+00 0.000000000000e+00 
4.000000000000e+00 1.000000000000e+01 0.000000000000e+00 2.981601308722e+02 1.260741695086e-05 0.000000000000e+00 -3.939828705001e+05 -9.087606834551e-06 -1.477590378935e+05 -1.477899460945e+05 -1.250660055980e-05 -9.233008543903e-16 1.570136612349e-09 0.000000000000e+00 0.000000000000e+00 
5.000000000000e+00 9.000000000000e+00 0.000000000000e+00 2.981408143462e+02 1.409805711189e-15 -1.413124097249e-09 -3.939864988797e+05 -1.437724625538e-07 -1.437996986959e+05 -1.438244252796e+05 -1.270823333888e-05 -1.460728219547e-17 1.256110453103e-09 0.000000000000e+00 0.000000000000e+00 
5.000000000000e+00 1.000000000000e+01 0.000000000000e+00 2.981408143463e+02 1.366238447222e-15 0.000000000000e+00 -3.939828705257e+05 1.278119547550e-06 -1.437898887050e+05 -1.438207969323e+05 -1.270823333854e-05 1.298569460311e-16 1.570137945053e-09 0.000000000000e+00 0.000000000000e+00 
0.000000000000e+00 8.000000000000e+00 0.000000000000e+00 3.080000000000e+02 0.000000000000e+00 -2.512220025087e-09 -3.939901272044e+05 1.562357339074e-07 -2.169669574572e+06 -2.169688119479e+06 9.020545800754e-05 1.587355056499e-17 9.420812855617e-10 0.000000000000e+00 0.000000000000e+00 
1.000000000000e+00 8.000000000000e+00 0.000000000000e+00 2.995955737280e+02 4.634126061603e-05 -2.512219953991e-09 -3.939901271818e+05 3.646611963394e-06 -4.427326693927e+05 -4.427512142821e+05 2.477063224697e-06 3.704957754808e-16 9.420803820889e-10 0.000000000000e+00 0.000000000000e+00 
2.000000000000e+00 8.000000000000e+00 0.000000000000e+00 2.977897838370e+02 3.939358482011e-05 -2.512219758345e-09 -3.939901271954e+05 2.086210051737e-06 -7.167995203274e+04 -7.169849693768e+04 -1.637241481709e-05 2.119589412564e-16 9.420811709518e-10 0.000000000000e+00 0.000000000000e+00 
3.000000000000e+00 8.000000000000e+00 0.000000000000e+00 2.981754532455e+02 2.503404732389e-05 -2.512219859214e-09 -3.939901273185e+05 -8.666998408817e-06 -1.509270906682e+05 -1.509456356818e+05 -1.234666017514e-05 -8.805670383358e-16 9.420866893037e-10 0.000000000000e+00 0.000000000000e+00 
4.000000000000e+00 8.000000000000e+00 0.000000000000e+00 2.981601308720e+02 1.260741695381e-05 -2.512220335532e-09 -3.939901272695e+05 -6.266134259745e-06 -1.477786577989e+05 -1.477972027729e+05 -1.250660056443e-05 -6.366392407901e-16 9.420846797601e-10 0.000000000000e+00 0.000000000000e+00 
5.000000000000e+00 8.000000000000e+00 0.000000000000e+00 2.981408143459e+02 1.457659508848e-15 -2.512220397085e-09 -3.939901272118e+05 2.432440080737e-06 -1.438095086543e+05 -1.438280535747e+05 -1.270823334076e-05 2.471359122028e-16 9.420819607689e-10 0.000000000000e+00 0.000000000000e+00 
0.000000000000e+00 7.000000000000e+00 0.000000000000e+00 3.080000000000e+02 0.000000000000e+00 -3.297288088447e-09 -3.939937555782e+05 1.911351606066e-06 -2.169679384550e+06 -2.169691747834e+06 9.020545800658e-05 1.941933231763e-16 6.280548272897e-10 0.000000000000e+00 0.000000000000e+00 
1.000000000000e+00 7.000000000000e+00 0.000000000000e+00 2.995955737283e+02 4.634126061578e-05 -3.297287957876e-09 -3.939937555935e+05 2.769117429633e-06 -4.427424793991e+05 -4.427548426974e+05 2.477063224875e-06 2.813423308507e-16 6.280555511783e-10 0.000000000000e+00 0.000000000000e+00 
2.000000000000e+00 7.000000000000e+00 0.000000000000e+00 2.977897838375e+02 3.939358482106e-05 -3.297288387329e-09 -3.939937556053e+05 -2.706086811658e-05 -7.168976209698e+04 -7.170212540491e+04 -1.637241481418e-05 -2.749384200644e-15 6.280560428073e-10 0.000000000000e+00 0.000000000000e+00 
3.000000000000e+00 7.000000000000e+00 0.000000000000e+00 2.981754532446e+02 2.503404732478e-05 -3.297289763166e-09 -3.939937555473e+05 -1.883655926989e-05 -1.509369005945e+05 -1.509492638478e+05 -1.234666017834e-05 -1.913794421821e-15 6.280532657868e-10 0.000000000000e+00 0.000000000000e+00 
4.000000000000e+00 7.000000000000e+00 0.000000000000e+00 2.981601308717e+02 1.260741695324e-05 -3.297289632425e-09 -3.939937555623e+05 1.828933592353e-05 -1.477884677887e+05 -1.478008310565e+05 -1.250660056489e-05 1.858196529830e-15 6.280540033646e-10 0.000000000000e+00 0.000000000000e+00 
5.000000000000e+00 7.000000000000e+00 0.000000000000e+00 2.981408143462e+02 1.291772794050e-15 -3.297289033493e-09 -3.939937555865e+05 2.988937054801e-06 -1.438193186954e+05 -1.438316819859e+05 -1.270823333891e-05 3.036760047678e-16 6.280551602156e-10 0.000000000000e+00 0.000000000000e+00 
0.000000000000e+00 6.000000000000e+00 0.000000000000e+00 3.080000000000e+02 0.000000000000e+00 -3.768329279853e-09 -3.939973839389e+05 4.783221900251e-07 -2.169689194547e+06 -2.169695376190e+06 9.020545800638e-05 4.859753450655e-17 3.140274831394e-10 0.000000000000e+00 0.000000000000e+00 
1.000000000000e+00 6.000000000000e+00 0.000000000000e+00 2.995955737283e+02 4.634126061593e-05 -3.768329307270e-09 -3.939973839338e+05 -2.579768853804e-06 -4.427522894119e+05 -4.427584710499e+05 2.477063225502e-06 -2.621045155465e-16 3.140272098885e-10 0.000000000000e+00 0.000000000000e+00 
2.000000000000e+00 6.000000000000e+00 0.000000000000e+00 2.977897838374e+02 3.939358482181e-05 -3.768329650930e-09 -3.939973839226e+05 -1.173052934427e-05 -7.169957210396e+04 -7.170575373113e+04 -1.637241481373e-05 -1.191821781378e-15 3.140266601863e-10 0.000000000000e+00 0.000000000000e+00 
3.000000000000e+00 6.000000000000e+00 0.000000000000e+00 2.981754532446e+02 2.503404732518e-05 -3.768330163676e-09 -3.939973839348e+05 -3.504389628726e-06 -1.509467105721e+05 -1.509528922120e+05 -1.234666017952e-05 -3.560459862785e-16 3.140273041231e-10 0.000000000000e+00 0.000000000000e+00 
4.000000000000e+00 6.000000000000e+00 0.000000000000e+00 2.981601308717e+02 1.260741695290e-05 -3.768330032746e-09 -3.939973839225e+05 4.632365563012e-06 -1.477982777847e+05 -1.478044594125e+05 -1.250660056510e-05 4.706483412020e-16 3.140266934759e-10 0.000000000000e+00 0.000000000000e+00 
5.000000000000e+00 6.000000000000e+00 0.000000000000e+00 2.981408143462e+02 1.289819166588e-15 -3.768330013660e-09 -3.939973839289e+05 -3.540951197400e-06 -1.438291287106e+05 -1.438353103436e+05 -1.270823333814e-05 -3.597606416558e-16 3.140269560764e-10 0.000000000000e+00 0.000000000000e+00 
0.000000000000e+00 5.000000000000e+00 0.000000000000e+00 3.080000000000e+02 0.000000000000e+00 -3.925343085519e-09 -3.940010122984e+05 3.837946444418e-07 -2.169699004543e+06 -2.169699004546e+06 9.020545800620e-05 3.899353587528e-17 1.652954839409e-16 0.000000000000e+00 0.000000000000e+00 
1.000000000000e+00 5.000000000000e+00 0.000000000000e+00 2.995955737284e+02 4.634126061595e-05 -3.925343073593e-09 -3.940010123027e+05 1.262939192387e-08 -4.427620994151e+05 -4.427620994219e+05 2.477063225657e-06 1.283146219465e-18 3.462063285117e-16 0.000000000000e+00 0.000000000000e+00 
2.000000000000e+00 5.000000000000e+00 0.000000000000e+00 2.977897838376e+02 3.939358482225e-05 -3.925343172507e-09 -3.940010123029e+05 -3.884999986120e-06 -7.170938212064e+04 -7.170938212719e+04 -1.637241481293e-05 -3.947159985898e-16 3.327708879555e-16 0.000000000000e+00 0.000000000000e+00 
3.000000000000e+00 5.000000000000e+00 0.000000000000e+00 2.981754532444e+02 2.503404732535e-05 -3.925343361608e-09 -3.940010122757e+05 -2.005872995335e-06 -1.509565205425e+05 -1.509565205247e+05 -1.234666018095e-05 -2.037966963260e-16 -9.055840904113e-16 0.000000000000e+00 0.000000000000e+00 
4.000000000000e+00 5.000000000000e+00 0.000000000000e+00 2.981601308718e+02 1.260741695271e-05 -3.925343339121e-09 -3.940010122952e+05 2.164922990643e-06 -1.478080878001e+05 -1.478080877992e+05 -1.250660056440e-05 2.199561758494e-16 -4.751672020521e-17 0.000000000000e+00 0.000000000000e+00 
5.000000000000e+00 5.000000000000e+00 0.000000000000e+00 2.981408143462e+02 1.494692717517e-15 -3.925343347587e-09 -3.940010122886e+05 -3.644810349149e-06 -1.438389387140e+05 -1.438389387072e+05 -1.270823333793e-05 -3.703127314736e-16 -3.425298782798e-16 0.000000000000e+00 0.000000000000e+00 
0.000000000000e+00 4.000000000000e+00 0.000000000000e+00 3.080000000000e+02 0.000000000000e+00 -3.768329490339e-09 -3.940046406544e+05 -6.211149193705e-08 -2.169708814544e+06 -2.169702632903e+06 9.020545800622e-05 -6.310527580804e-18 -3.140273707075e-10 0.000000000000e+00 0.000000000000e+00 
1.000000000000e+00 4.000000000000e+00 0.000000000000e+00 2.995955737284e+02 4.634126061600e-05 -3.768329509989e-09 -3.940046406524e+05 -9.858178438062e-07 -4.427719094177e+05 -4.427657277747e+05 2.477063225813e-06 -1.001590929307e-16 -3.140274648135e-10 0.000000000000e+00 0.000000000000e+00 
2.000000000000e+00 4.000000000000e+00 0.000000000000e+00 2.977897838375e+02 3.939358482221e-05 -3.768329511917e-09 -3.940046406492e+05 2.312470311002e-06 -7.171919210963e+04 -7.171301046369e+04 -1.637241481342e-05 2.349469835978e-16 -3.140276135516e-10 0.000000000000e+00 0.000000000000e+00 
3.000000000000e+00 4.000000000000e+00 0.000000000000e+00 2.981754532446e+02 2.503404732538e-05 -3.768329397046e-09 -3.940046406602e+05 3.397723822012e-07 -1.509663305592e+05 -1.509601489236e+05 -1.234666018022e-05 3.452087403164e-17 -3.140270864561e-10 0.000000000000e+00 0.000000000000e+00 
4.000000000000e+00 4.000000000000e+00 0.000000000000e+00 2.981601308717e+02 1.260741695275e-05 -3.768329494023e-09 -3.940046406486e+05 -2.025211418416e-06 -1.478178977860e+05 -1.478117161397e+05 -1.250660056505e-05 -2.057614801111e-16 -3.140276299271e-10 0.000000000000e+00 0.000000000000e+00 
5.000000000000e+00 4.000000000000e+00 0.000000000000e+00 2.981408143464e+02 1.608457209068e-15 -3.768329553323e-09 -3.940046406576e+05 -2.280173007525e-06 -1.438487487279e+05 -1.438425670896e+05 -1.270823333726e-05 -2.316655775646e-16 -3.140272241282e-10 0.000000000000e+00 0.000000000000e+00 
0.000000000000e+00 3.000000000000e+00 0.000000000000e+00 3.080000000000e+02 0.000000000000e+00 -3.297288355848e-09 -3.940082690103e+05 -2.709717484560e-08 -2.169718624544e+06 -2.169706261259e+06 9.020545800622e-05 -2.753072964313e-18 -6.280548786694e-10 0.000000000000e+00 0.000000000000e+00 
1.000000000000e+00 3.000000000000e+00 0.000000000000e+00 2.995955737284e+02 4.634126061598e-05 -3.297288336884e-09 -3.940082690104e+05 1.077467095944e-06 -4.427817194162e+05 -4.427693561311e+05 2.477063225734e-06 1.094706569479e-16 -6.280548806693e-10 0.000000000000e+00 0.000000000000e+00 
2.000000000000e+00 3.000000000000e+00 0.000000000000e+00 2.977897838375e+02 3.939358482217e-05 -3.297288271745e-09 -3.940082690098e+05 1.125413425979e-06 -7.172900211186e+04 -7.171663882610e+04 -1.637241481333e-05 1.143420040794e-16 -6.280549164613e-10 0.000000000000e+00 0.000000000000e+00 
3.000000000000e+00 3.000000000000e+00 0.000000000000e+00 2.981754532446e+02 2.503404732535e-05 -3.297288215156e-09 -3.940082690034e+05 6.369261884871e-07 -1.509761405571e+05 -1.509637772653e+05 -1.234666018029e-05 6.471170075029e-17 -6.280552238245e-10 0.000000000000e+00 0.000000000000e+00 
4.000000000000e+00 3.000000000000e+00 0.000000000000e+00 2.981601308718e+02 1.260741695281e-05 -3.297288192179e-09 -3.940082690081e+05 -5.566326016947e-07 -1.478277077909e+05 -1.478153445039e+05 -1.250660056481e-05 -5.655387233218e-17 -6.280549767969e-10 0.000000000000e+00 0.000000000000e+00 
5.000000000000e+00 3.000000000000e+00 0.000000000000e+00 2.981408143463e+02 1.773778700229e-15 -3.297288292692e-09 -3.940082690018e+05 -3.009449188219e-06 -1.438585587268e+05 -1.438461954334e+05 -1.270823333728e-05 -3.057600375230e-16 -6.280553055624e-10 0.000000000000e+00 0.000000000000e+00 
0.000000000000e+00 2.000000000000e+00 0.000000000000e+00 3.080000000000e+02 0.000000000000e+00 -2.512219741196e-09 -3.940118973667e+05 -1.644384320059e-07 -2.169728434543e+06 -2.169709889615e+06 9.020545800621e-05 -1.670694469179e-17 -9.420823621082e-10 0.000000000000e+00 0.000000000000e+00 
1.000000000000e+00 2.000000000000e+00 0.000000000000e+00 2.995955737284e+02 4.634126061594e-05 -2.512219741085e-09 -3.940118973683e+05 4.785027854223e-07 -4.427915294143e+05 -4.427729844874e+05 2.477063225648e-06 4.861588299891e-17 -9.420822874460e-10 0.000000000000e+00 0.000000000000e+00 
2.000000000000e+00 2.000000000000e+00 0.000000000000e+00 2.977897838375e+02 3.939358482202e-05 -2.512219635402e-09 -3.940118973685e+05 4.812221945148e-06 -7.173881210946e+04 -7.172026718179e+04 -1.637241481348e-05 4.889217496270e-16 -9.420823259358e-10 0.000000000000e+00 0.000000000000e+00 
3.000000000000e+00 2.000000000000e+00 0.000000000000e+00 2.981754532446e+02 2.503404732517e-05 -2.512219276148e-09 -3.940118973612e+05 1.024100155890e-05 -1.509859505608e+05 -1.509674056265e+05 -1.234666018012e-05 1.040485758384e-15 -9.420826640423e-10 0.000000000000e+00 0.000000000000e+00 
4.000000000000e+00 2.000000000000e+00 0.000000000000e+00 2.981601308717e+02 1.260741695285e-05 -2.512218963288e-09 -3.940118973416e+05 -1.402447536992e-06 -1.478375177939e+05 -1.478189728417e+05 -1.250660056459e-05 -1.424886697584e-16 -9.420835705184e-10 0.000000000000e+00 0.000000000000e+00 
5.000000000000e+00 2.000000000000e+00 0.000000000000e+00 2.981408143464e+02 2.019937302702e-15 -2.512219343605e-09 -3.940118973633e+05 -1.005864413665e-05 -1.438683687304e+05 -1.438498237980e+05 -1.270823333712e-05 -1.021958244283e-15 -9.420825657460e-10 0.000000000000e+00 0.000000000000e+00 
0.000000000000e+00 1.000000000000e+00 0.000000000000e+00 3.080000000000e+02 0.000000000000e+00 -1.413123598917e-09 -3.940155257214e+05 6.329504001628e-07 -2.169738244545e+06 -2.169713517971e+06 9.020545800628e-05 6.430776065654e-17 -1.256109937902e-09 0.000000000000e+00 0.000000000000e+00 
1.000000000000e+00 1.000000000000e+00 0.000000000000e+00 2.995955737284e+02 4.634126061599e-05 -1.413123649546e-09 -3.940155257211e+05 -4.825128810208e-06 -4.428013394145e+05 -4.427766128408e+05 2.477063225682e-06 -4.902330871171e-16 -1.256109944214e-09 0.000000000000e+00 0.000000000000e+00 
2.000000000000e+00 1.000000000000e+00 0.000000000000e+00 2.977897838375e+02 3.939358482179e-05 -1.413123803296e-09 -3.940155257354e+05 2.900551123443e-06 -7.174862209715e+04 -7.172389553717e+04 -1.637241481407e-05 2.946959941418e-16 -1.256109247048e-09 0.000000000000e+00 0.000000000000e+00 
3.000000000000e+00 1.000000000000e+00 0.000000000000e+00 2.981754532446e+02 2.503404732452e-05 -1.413123304334e-09 -3.940155257340e+05 1.457625810245e-05 -1.509957605526e+05 -1.509710339917e+05 -1.234666018051e-05 1.480947823208e-15 -1.256109292632e-09 0.000000000000e+00 0.000000000000e+00 
4.000000000000e+00 1.000000000000e+00 0.000000000000e+00 2.981601308721e+02 1.260741695288e-05 -1.413122887596e-09 -3.940155257503e+05 1.543888363292e-06 -1.478473278342e+05 -1.478226012875e+05 -1.250660056271e-05 1.568590577105e-16 -1.256108574063e-09 0.000000000000e+00 0.000000000000e+00 
5.000000000000e+00 1.000000000000e+00 0.000000000000e+00 2.981408143463e+02 2.564275530199e-15 -1.413123122660e-09 -3.940155257213e+05 -8.383688661746e-06 -1.438781787143e+05 -1.438534521412e+05 -1.270823333787e-05 -8.517827680334e-16 -1.256109916475e-09 0.000000000000e+00 0.000000000000e+00 
0.000000000000e+00 0.000000000000e+00 0.000000000000e+00 3.080000000000e+02 0.000000000000e+00 0.000000000000e+00 -3.940191540822e+05 5.496014473922e-07 -2.169748054541e+06 -2.169717146327e+06 9.020545800606e-05 5.583950705504e-17 -1.570137241368e-09 0.000000000000e+00 0.000000000000e+00 
1.000000000000e+00 0.000000000000e+00 0.000000000000e+00 2.995955737284e+02 4.634126061618e-05 0.000000000000e+00 -3.940191540808e+05 -1.921534057685e-06 -4.428111494293e+05 -4.427802412141e+05 2.477063226371e-06 -1.952278602608e-16 -1.570137334499e-09 0.000000000000e+00 0.000000000000e+00 
2.000000000000e+00 0.000000000000e+00 0.000000000000e+00 2.977897838372e+02 3.939358482174e-05 0.000000000000e+00 -3.940191540553e+05 -4.122341410097e-07 -7.175843206963e+04 -7.172752383222e+04 -1.637241481533e-05 -4.188298872659e-17 -1.570138460054e-09 0.000000000000e+00 0.000000000000e+00 
3.000000000000e+00 0.000000000000e+00 0.000000000000e+00 2.981754532446e+02 2.503404732418e-05 0.000000000000e+00 -3.940191540814e+05 8.454609895760e-07 -1.510055705660e+05 -1.509746623515e+05 -1.234666017988e-05 8.589883654093e-17 -1.570137299279e-09 0.000000000000e+00 0.000000000000e+00 
4.000000000000e+00 0.000000000000e+00 0.000000000000e+00 2.981601308720e+02 1.260741695278e-05 0.000000000000e+00 -3.940191540847e+05 1.041166982203e-06 -1.478571378307e+05 -1.478262296196e+05 -1.250660056283e-05 1.057825653918e-16 -1.570137125899e-09 0.000000000000e+00 0.000000000000e+00 
5.000000000000e+00 0.000000000000e+00 0.000000000000e+00 2.981408143465e+02 2.677746912081e-15 0.000000000000e+00 -3.940191541015e+05 1.275351272951e-06 -1.438879887266e+05 -1.438570805318e+05 -1.270823333734e-05 1.295756893318e-16 -1.570136296499e-09 0.000000000000e+00 0.000000000000e+00 
6.000000000000e+00 9.000000000000e+00 0.000000000000e+00 2.981601308720e+02 -1.260741694913e-05 -1.413123920152e-09 -3.939864988649e+05 -8.111063863934e-07 -1.477688478419e+05 -1.477935744125e+05 -1.250660056218e-05 -8.240840885757e-17 1.256109787041e-09 0.000000000000e+00 0.000000000000e+00 
6.000000000000e+00 1.000000000000e+01 0.000000000000e+00 2.981601308720e+02 -1.260741694915e-05 0.000000000000e+00 -3.939828705230e+05 -2.648365163205e-07 -1.477590378328e+05 -1.477899460612e+05 -1.250660056266e-05 -2.690739005817e-17 1.570138000458e-09 0.000000000000e+00 0.000000000000e+00 
7.000000000000e+00 9.000000000000e+00 0.000000000000e+00 2.981754532446e+02 -2.503404732043e-05 -1.413124095236e-09 -3.939864988843e+05 7.124843097587e-06 -1.509172805535e+05 -1.509420071421e+05 -1.234666018050e-05 7.238840587149e-16 1.256110703338e-09 0.000000000000e+00 0.000000000000e+00 
7.000000000000e+00 1.000000000000e+01 0.000000000000e+00 2.981754532447e+02 -2.503404732016e-05 0.000000000000e+00 -3.939828705154e+05 3.626267113411e-06 -1.509074705803e+05 -1.509383787998e+05 -1.234666017915e-05 3.684287387226e-16 1.570137550360e-09 0.000000000000e+00 0.000000000000e+00 
8.000000000000e+00 9.000000000000e+00 0.000000000000e+00 2.977897838371e+02 -3.939358481953e-05 -1.413123929001e-09 -3.939864988845e+05 -2.263829206088e-05 -7.167014202805e+04 -7.169486861685e+04 -1.637241481760e-05 -2.300050473385e-15 1.256110710719e-09 0.000000000000e+00 0.000000000000e+00 
8.000000000000e+00 1.000000000000e+01 0.000000000000e+00 2.977897838366e+02 -3.939358482028e-05 0.000000000000e+00 -3.939828704936e+05 -5.206258511407e-06 -7.166033194408e+04 -7.169124014944e+04 -1.637241482149e-05 -5.289558647589e-16 1.570136832199e-09 0.000000000000e+00 0.000000000000e+00 
9.000000000000e+00 9.000000000000e+00 0.000000000000e+00 2.995955737283e+02 -4.634126061566e-05 -1.413125637587e-09 -3.939864988663e+05 -2.169540327778e-05 -4.427228594066e+05 -4.427475859781e+05 2.477063225281e-06 -2.204252973022e-15 1.256109829493e-09 0.000000000000e+00 0.000000000000e+00 
9.000000000000e+00 1.000000000000e+01 0.000000000000e+00 2.995955737291e+02 -4.634126061631e-05 0.000000000000e+00 -3.939828706041e+05 -3.337189067189e-06 -4.427130494970e+05 -4.427439577990e+05 2.477063229502e-06 -3.390584092264e-16 1.570141744127e-09 0.000000000000e+00 0.000000000000e+00 
1.000000000000e+01 9.000000000000e+00 0.000000000000e+00 3.080000000000e+02 0.000000000000e+00 -1.413125512886e-09 -3.939864988767e+05 1.027950997569e-05 -2.169659764541e+06 -2.169684491122e+06 9.020545800606e-05 1.044398213530e-15 1.256110311315e-09 0.000000000000e+00 0.000000000000e+00 
1.000000000000e+01 1.000000000000e+01 0.000000000000e+00 3.080000000000e+02 0.000000000000e+00 0.000000000000e+00 -3.939828705749e+05 3.549932697436e-06 -2.169649954484e+06 -2.169680862765e+06 9.020545800327e-05 3.606731620595e-16 1.570140671993e-09 0.000000000000e+00 0.000000000000e+00 
6.000000000000e+00 8.000000000000e+00 0.000000000000e+00 2.981601308723e+02 -1.260741694910e-05 -2.512220349686e-09 -3.939901272401e+05 -8.375873348850e-08 -1.477786578821e+05 -1.477972028252e+05 -1.250660056028e-05 -8.509887322431e-18 9.420831074979e-10 0.000000000000e+00 0.000000000000e+00 
7.000000000000e+00 8.000000000000e+00 0.000000000000e+00 2.981754532443e+02 -2.503404732043e-05 -2.512220449312e-09 -3.939901272124e+05 -3.978187050399e-06 -1.509270905129e+05 -1.509456354321e+05 -1.234666018244e-05 -4.041838043205e-16 9.420818944381e-10 0.000000000000e+00 0.000000000000e+00 
8.000000000000e+00 8.000000000000e+00 0.000000000000e+00 2.977897838375e+02 -3.939358481885e-05 -2.512220724737e-09 -3.939901272461e+05 -7.469151082140e-06 -7.167995209755e+04 -7.169849704376e+04 -1.637241481428e-05 -7.588657499454e-16 9.420832675274e-10 0.000000000000e+00 0.000000000000e+00 
9.000000000000e+00 8.000000000000e+00 0.000000000000e+00 2.995955737278e+02 -4.634126061498e-05 -2.512221078142e-09 -3.939901271872e+05 -4.496490653279e-06 -4.427326693403e+05 -4.427512142360e+05 2.477063222078e-06 -4.568434503731e-16 9.420806990924e-10 0.000000000000e+00 0.000000000000e+00 
1.000000000000e+01 8.000000000000e+00 0.000000000000e+00 3.080000000000e+02 0.000000000000e+00 -2.512221160229e-09 -3.939901271996e+05 1.752624271602e-07 -2.169669574575e+06 -2.169688119478e+06 9.020545800776e-05 1.780666259948e-17 9.420811026052e-10 0.000000000000e+00 0.000000000000e+00 
6.000000000000e+00 7.000000000000e+00 0.000000000000e+00 2.981601308720e+02 -1.260741694906e-05 -3.297289257768e-09 -3.939937555780e+05 -2.781095836640e-06 -1.477884678492e+05 -1.478008311321e+05 -1.250660056185e-05 -2.825593370026e-16 6.280547753743e-10 0.000000000000e+00 0.000000000000e+00 
7.000000000000e+00 7.000000000000e+00 0.000000000000e+00 2.981754532446e+02 -2.503404732020e-05 -3.297289226529e-09 -3.939937555968e+05 -4.232276357746e-06 -1.509369005571e+05 -1.509492638571e+05 -1.234666018038e-05 -4.299992779470e-16 6.280556440900e-10 0.000000000000e+00 0.000000000000e+00 
8.000000000000e+00 7.000000000000e+00 0.000000000000e+00 2.977897838371e+02 -3.939358481872e-05 -3.297289556488e-09 -3.939937555708e+05 9.502549386519e-07 -7.168976204517e+04 -7.170212532175e+04 -1.637241481665e-05 9.654590176703e-17 6.280544503886e-10 0.000000000000e+00 0.000000000000e+00 
9.000000000000e+00 7.000000000000e+00 0.000000000000e+00 2.995955737282e+02 -4.634126061511e-05 -3.297289181273e-09 -3.939937555927e+05 6.004028001723e-06 -4.427424793791e+05 -4.427548426759e+05 2.477063223826e-06 6.100092449751e-16 6.280554736667e-10 0.000000000000e+00 0.000000000000e+00 
1.000000000000e+01 7.000000000000e+00 0.000000000000e+00 3.080000000000e+02 0.000000000000e+00 -3.297289233040e-09 -3.939937555819e+05 -2.894530491950e-06 -2.169679384547e+06 -2.169691747834e+06 9.020545800641e-05 -2.940842979821e-16 6.280549842371e-10 0.000000000000e+00 0.000000000000e+00 
6.000000000000e+00 6.000000000000e+00 0.000000000000e+00 2.981601308720e+02 -1.260741694883e-05 -3.768330259800e-09 -3.939973839321e+05 -5.957161590496e-06 -1.477982778452e+05 -1.478044594820e+05 -1.250660056207e-05 -6.052476175943e-16 3.140271482856e-10 0.000000000000e+00 0.000000000000e+00 
7.000000000000e+00 6.000000000000e+00 0.000000000000e+00 2.981754532445e+02 -2.503404732007e-05 -3.768330478050e-09 -3.939973839292e+05 -2.223466084254e-06 -1.509467105554e+05 -1.509528921890e+05 -1.234666018040e-05 -2.259041541602e-16 3.140269845919e-10 0.000000000000e+00 0.000000000000e+00 
8.000000000000e+00 6.000000000000e+00 0.000000000000e+00 2.977897838371e+02 -3.939358481876e-05 -3.768330510872e-09 -3.939973839344e+05 3.346779168155e-07 -7.169957203918e+04 -7.170575367871e+04 -1.637241481699e-05 3.400327634845e-17 3.140272878634e-10 0.000000000000e+00 0.000000000000e+00 
9.000000000000e+00 6.000000000000e+00 0.000000000000e+00 2.995955737282e+02 -4.634126061523e-05 -3.768330496880e-09 -3.939973839353e+05 6.277119029631e-07 -4.427522893833e+05 -4.427584710227e+05 2.477063224042e-06 6.377552934106e-17 3.140272823356e-10 0.000000000000e+00 0.000000000000e+00 
1.000000000000e+01 6.000000000000e+00 0.000000000000e+00 3.080000000000e+02 0.000000000000e+00 -3.768330466324e-09 -3.939973839378e+05 4.266976695479e-07 -2.169689194548e+06 -2.169695376190e+06 9.020545800643e-05 4.335248322607e-17 3.140274346960e-10 0.000000000000e+00 0.000000000000e+00 
6.000000000000e+00 5.000000000000e+00 0.000000000000e+00 2.981601308720e+02 -1.260741694854e-05 -3.925343657848e-09 -3.940010122891e+05 -7.060691307515e-06 -1.478080878427e+05 -1.478080878366e+05 -1.250660056219e-05 -7.173662368435e-16 -3.118570172558e-16 0.000000000000e+00 0.000000000000e+00 
7.000000000000e+00 5.000000000000e+00 0.000000000000e+00 2.981754532445e+02 -2.503404731991e-05 -3.925343913097e-09 -3.940010122920e+05 -3.733340597489e-06 -1.509565205524e+05 -1.509565205491e+05 -1.234666018054e-05 -3.793074047048e-16 -1.702869868163e-16 0.000000000000e+00 0.000000000000e+00 
8.000000000000e+00 5.000000000000e+00 0.000000000000e+00 2.977897838371e+02 -3.939358481870e-05 -3.925344045193e-09 -3.940010122923e+05 -1.627076151684e-06 -7.170938203865e+04 -7.170938203546e+04 -1.637241481705e-05 -1.653109370111e-16 -1.620336741309e-16 0.000000000000e+00 0.000000000000e+00 
9.000000000000e+00 5.000000000000e+00 0.000000000000e+00 2.995955737282e+02 -4.634126061523e-05 -3.925344090062e-09 -3.940010122928e+05 -4.727263304266e-07 -4.427620993819e+05 -4.427620993792e+05 2.477063223988e-06 -4.802899517134e-17 -1.341996704505e-16 0.000000000000e+00 0.000000000000e+00 
1.000000000000e+01 5.000000000000e+00 0.000000000000e+00 3.080000000000e+02 0.000000000000e+00 -3.925344103171e-09 -3.940010122930e+05 -7.434699641224e-08 -2.169699004549e+06 -2.169699004547e+06 9.020545800648e-05 -7.553654835483e-18 -1.202928497746e-16 0.000000000000e+00 0.000000000000e+00 
6.000000000000e+00 4.000000000000e+00 0.000000000000e+00 2.981601308720e+02 -1.260741694821e-05 -3.768329786467e-09 -3.940046406525e+05 -5.809062089111e-06 -1.478178978398e+05 -1.478117161971e+05 -1.250660056233e-05 -5.902007082536e-16 -3.140274467366e-10 0.000000000000e+00 0.000000000000e+00 
7.000000000000e+00 4.000000000000e+00 0.000000000000e+00 2.981754532445e+02 -2.503404731971e-05 -3.768330040109e-09 -3.940046406503e+05 -3.894329125961e-06 -1.509663305493e+05 -1.509601489043e+05 -1.234666018070e-05 -3.956638391977e-16 -3.140275663246e-10 0.000000000000e+00 0.000000000000e+00 
8.000000000000e+00 4.000000000000e+00 0.000000000000e+00 2.977897838371e+02 -3.939358481862e-05 -3.768330174071e-09 -3.940046406497e+05 -1.701270442737e-06 -7.171919203715e+04 -7.171301039154e+04 -1.637241481712e-05 -1.728490769820e-16 -3.140275971912e-10 0.000000000000e+00 0.000000000000e+00 
9.000000000000e+00 4.000000000000e+00 0.000000000000e+00 2.995955737282e+02 -4.634126061521e-05 -3.768330230241e-09 -3.940046406502e+05 -6.099765908981e-07 -4.427719093809e+05 -4.427657277357e+05 2.477063223943e-06 -6.197362163525e-17 -3.140275753800e-10 0.000000000000e+00 0.000000000000e+00 
1.000000000000e+01 4.000000000000e+00 0.000000000000e+00 3.080000000000e+02 0.000000000000e+00 -3.768330239124e-09 -3.940046406496e+05 5.579488429840e-08 -2.169708814549e+06 -2.169702632903e+06 9.020545800646e-05 5.668760244718e-18 -3.140276125941e-10 0.000000000000e+00 0.000000000000e+00 
6.000000000000e+00 3.000000000000e+00 0.000000000000e+00 2.981601308720e+02 -1.260741694798e-05 -3.297288500829e-09 -3.940082690054e+05 -4.710979558309e-06 -1.478277078421e+05 -1.478153445522e+05 -1.250660056222e-05 -4.786355231241e-16 -6.280551263628e-10 0.000000000000e+00 0.000000000000e+00 
7.000000000000e+00 3.000000000000e+00 0.000000000000e+00 2.981754532445e+02 -2.503404731949e-05 -3.297288767700e-09 -3.940082690080e+05 -5.812094454277e-06 -1.509761405471e+05 -1.509637772598e+05 -1.234666018081e-05 -5.905087965545e-16 -6.280549953633e-10 0.000000000000e+00 0.000000000000e+00 
8.000000000000e+00 3.000000000000e+00 0.000000000000e+00 2.977897838371e+02 -3.939358481854e-05 -3.297288969282e-09 -3.940082690128e+05 -1.181193409375e-06 -7.172900203507e+04 -7.171663875196e+04 -1.637241481725e-05 -1.200092503925e-16 -6.280547822113e-10 0.000000000000e+00 0.000000000000e+00 
9.000000000000e+00 3.000000000000e+00 0.000000000000e+00 2.995955737282e+02 -4.634126061522e-05 -3.297288901036e-09 -3.940082690059e+05 2.300377980365e-06 -4.427817193795e+05 -4.427693560904e+05 2.477063223890e-06 2.337184028051e-16 -6.280550849392e-10 0.000000000000e+00 0.000000000000e+00 
1.000000000000e+01 3.000000000000e+00 0.000000000000e+00 3.080000000000e+02 0.000000000000e+00 -3.297288856073e-09 -3.940082690041e+05 3.190690078342e-08 -2.169718624550e+06 -2.169706261259e+06 9.020545800653e-05 3.241741119596e-18 -6.280551793570e-10 0.000000000000e+00 0.000000000000e+00 
6.000000000000e+00 2.000000000000e+00 0.000000000000e+00 2.981601308720e+02 -1.260741694769e-05 -2.512219690913e-09 -3.940118973649e+05 -6.115716977303e-06 -1.478375178420e+05 -1.478189729113e+05 -1.250660056224e-05 -6.213568448940e-16 -9.420824761355e-10 0.000000000000e+00 0.000000000000e+00 
7.000000000000e+00 2.000000000000e+00 0.000000000000e+00 2.981754532445e+02 -2.503404731918e-05 -2.512220005342e-09 -3.940118973644e+05 -5.853007546878e-06 -1.509859505485e+05 -1.509674056173e+05 -1.234666018075e-05 -5.946655667628e-16 -9.420825052708e-10 0.000000000000e+00 0.000000000000e+00 
8.000000000000e+00 2.000000000000e+00 0.000000000000e+00 2.977897838370e+02 -3.939358481853e-05 -2.512220135907e-09 -3.940118973563e+05 2.267881570294e-06 -7.173881202086e+04 -7.172026708212e+04 -1.637241481793e-05 2.304167675418e-16 -9.420828879901e-10 0.000000000000e+00 0.000000000000e+00 
9.000000000000e+00 2.000000000000e+00 0.000000000000e+00 2.995955737282e+02 -4.634126061538e-05 -2.512219923751e-09 -3.940118973561e+05 3.216034932925e-06 -4.427915293857e+05 -4.427729844470e+05 2.477063224214e-06 3.267491491852e-16 -9.420828892954e-10 0.000000000000e+00 0.000000000000e+00 
1.000000000000e+01 2.000000000000e+00 0.000000000000e+00 3.080000000000e+02 0.000000000000e+00 -2.512219902767e-09 -3.940118973603e+05 -9.192399009192e-07 -2.169728434550e+06 -2.169709889615e+06 9.020545800655e-05 -9.339477393339e-17 -9.420827143933e-10 0.000000000000e+00 0.000000000000e+00 
6.000000000000e+00 1.000000000000e+00 0.000000000000e+00 2.981601308721e+02 -1.260741694736e-05 -1.413123485280e-09 -3.940155257213e+05 -7.837785014189e-06 -1.478473278450e+05 -1.478226012713e+05 -1.250660056206e-05 -7.963189574416e-16 -1.256109940084e-09 0.000000000000e+00 0.000000000000e+00 
7.000000000000e+00 1.000000000000e+00 0.000000000000e+00 2.981754532445e+02 -2.503404731894e-05 -1.413123832736e-09 -3.940155257236e+05 -6.501112098328e-06 -1.509957605417e+05 -1.509710339703e+05 -1.234666018107e-05 -6.605129891901e-16 -1.256109828148e-09 0.000000000000e+00 0.000000000000e+00 
8.000000000000e+00 1.000000000000e+00 0.000000000000e+00 2.977897838370e+02 -3.939358481869e-05 -1.413123935986e-09 -3.940155257308e+05 3.881755371300e-06 -7.174862201096e+04 -7.172389544634e+04 -1.637241481845e-05 3.943863457241e-16 -1.256109483036e-09 0.000000000000e+00 0.000000000000e+00 
9.000000000000e+00 1.000000000000e+00 0.000000000000e+00 2.995955737283e+02 -4.634126061552e-05 -1.413123643479e-09 -3.940155257268e+05 4.659806477436e-06 -4.428013393979e+05 -4.427766128292e+05 2.477063224803e-06 4.734363381075e-16 -1.256109690160e-09 0.000000000000e+00 0.000000000000e+00 
1.000000000000e+01 1.000000000000e+00 0.000000000000e+00 3.080000000000e+02 0.000000000000e+00 -1.413123609363e-09 -3.940155257226e+05 -1.111330255813e-06 -2.169738244544e+06 -2.169713517971e+06 9.020545800622e-05 -1.129111539906e-16 -1.256109882263e-09 0.000000000000e+00 0.000000000000e+00 
6.000000000000e+00 0.000000000000e+00 0.000000000000e+00 2.981601308721e+02 -1.260741694709e-05 0.000000000000e+00 -3.940191540861e+05 -1.543671861405e-06 -1.478571378434e+05 -1.478262296341e+05 -1.250660056216e-05 -1.568370611187e-16 -1.570137034503e-09 0.000000000000e+00 0.000000000000e+00 
7.000000000000e+00 0.000000000000e+00 0.000000000000e+00 2.981754532445e+02 -2.503404731870e-05 0.000000000000e+00 -3.940191540686e+05 -1.615463731270e-06 -1.510055705412e+05 -1.509746623154e+05 -1.234666018106e-05 -1.641311150970e-16 -1.570137872490e-09 0.000000000000e+00 0.000000000000e+00 
8.000000000000e+00 0.000000000000e+00 0.000000000000e+00 2.977897838368e+02 -3.939358481877e-05 0.000000000000e+00 -3.940191540567e+05 3.497425738355e-07 -7.175843199514e+04 -7.172752375812e+04 -1.637241481917e-05 3.553384550169e-17 -1.570138440272e-09 0.000000000000e+00 0.000000000000e+00 
9.000000000000e+00 0.000000000000e+00 0.000000000000e+00 2.995955737283e+02 -4.634126061570e-05 0.000000000000e+00 -3.940191540762e+05 1.450296237963e-06 -4.428111494083e+05 -4.427802411885e+05 2.477063225307e-06 1.473500977770e-16 -1.570137565354e-09 0.000000000000e+00 0.000000000000e+00 
1.000000000000e+01 0.000000000000e+00 0.000000000000e+00 3.080000000000e+02 0.000000000000e+00 0.000000000000e+00 -3.940191540807e+05 -1.028252297747e-07 -2.169748054542e+06 -2.169717146327e+06 9.020545800614e-05 -1.044704334511e-17 -1.570137319899e-09 0.000000000000e+00 0.000000000000e+00 
1  2  3  4  
4  3  5  6  
6  5  7  8  
8  7  9  10  
10  9  11  12  
2  13  14  3  
3  14  15  5  
5  15  16  7  
7  16  17  9  
9  17  18  11  
13  19  20  14  
14  20  21  15  
15  21  22  16  
16  22  23  17  
17  23  24  18  
19  25  26  20  
20  26  27  21  
21  27  28  22  
22  28  29  23  
23  29  30  24  
25  31  32  26  
26  32  33  27  
27  33  34  28  
28  34  35  29  
29  35  36  30  
31  37  38  32  
32  38  39  33  
33  39  40  34  
34  40  41  35  
35  41  42  36  
37  43  44  38  
38  44  45  39  
39  45  46  40  
40  46  47  41  
41  47  48  42  
43  49  50  44  
44  50  51  45  
45  51  52  46  
46  52  53  47  
47  53  54  48  
49  55  56  50  
50  56  57  51  
51  57  58  52  
52  58  59  53  
53  59  60  54  
55  61  62  56  
56  62  63  57  
57  63  64  58  
58  64  65  59  
59  65  66  60  
12  11  67  68  
68  67  69  70  
70  69  71  72  
72  71  73  74  
74  73  75  76  
11  18  77  67  
67  77  78  69  
69  78  79  71  
71  79  80  73  
73  80  81  75  
18  24  82  77  
77  82  83  78  
78  83  84  79  
79  84  85  80  
80  85  86  81  
24  30  87  82  
82  87  88  83  
83  88  89  84  
84  89  90  85  
85  90  91  86  
30  36  92  87  
87  92  93  88  
88  93  94  89  
89  94  95  90  
90  95  96  91  
36  42  97  92  
92  97  98  93  
93  98  99  94  
94  99  100  95  
95  100  101  96  
42  48  102  97  
97  102  103  98  
98  103  104  99  
99  104  105  100  
100  105  106  101  
48  54  107  102  
102  107  108  103  
103  108  109  104  
104  109  110  105  
105  110  111  106  
54  60  112  107  
107  112  113  108  
108  113  114  109  
109  114  115  110  
110  115  116  111  
60  66  117  112  
112  117  118  113  
113  118  119  114  
114  119  120  115  
115  120  121  116  
VARIABLES  = "X","Y","Z", "TEMPERATURE1", "DISPLACEMENT_X1", "DISPLACEMENT_Y1", "STRESS_XX", "STRESS_XY", "STRESS_YY", "STRESS_ZZ", "STRAIN_XX", "STRAIN_XY", "STRAIN_YY", "STRAIN_ZZ", "STRAIN_PLS"
ZONE T="4.000000000000e-01s", N=121, E=100, F=FEPOINT, ET=QUADRILATERAL
STRANDID=1, SOLUTIONTIME=4.000000000000e-01
0.000000000000e+00 1.000000000000e+01 0.000000000000e+00 3.080000000000e+02 0.000000000000e+00 0.000000000000e+00 -4.551450824468e+05 -1.813903370877e-06 -2.192271594531e+06 -2.192302502783e+06 8.824759695309e-05 -1.842925824811e-16 1.570139213444e-09 0.000000000000e+00 0.000000000000e+00 
0.000000000000e+00 9.000000000000e+00 0.000000000000e+00 3.080000000000e+02 0.000000000000e+00 -1.413124581973e-09 -4.551487107687e+05 -5.843256839668e-06 -2.192281404568e+06 -2.192306131140e+06 8.824759695487e-05 -5.936748949103e-16 1.256109849348e-09 0.000000000000e+00 0.000000000000e+00 
1.000000000000e+00 9.000000000000e+00 0.000000000000e+00 3.004302419167e+02 4.873968147935e-05 -1.413124860302e-09 -4.551487107644e+05 -1.485393566085e-06 -6.368516614372e+05 -6.368763880054e+05 9.231766003844e-06 -1.509159863142e-16 1.256109663084e-09 0.000000000000e+00 0.000000000000e+00 
1.000000000000e+00 1.000000000000e+01 0.000000000000e+00 3.004302419172e+02 4.873968147943e-05 0.000000000000e+00 -4.551450824761e+05 -7.341357504460e-07 -6.368418514777e+05 -6.368727597515e+05 9.231766005592e-06 -7.458819224531e-17 1.570140310917e-09 0.000000000000e+00 0.000000000000e+00 
2.000000000000e+00 9.000000000000e+00 0.000000000000e+00 2.979607954969e+02 4.508296685343e-05 -1.413123616703e-09 -4.551487107824e+05 6.513341844237e-05 -1.294311642017e+05 -1.294558907873e+05 -1.654519525575e-05 6.617555313745e-15 1.256110546145e-09 0.000000000000e+00 0.000000000000e+00 
2.000000000000e+00 1.000000000000e+01 0.000000000000e+00 2.979607954971e+02 4.508296685538e-05 0.000000000000e+00 -4.551450824080e+05 1.280063195449e-05 -1.294213542629e+05 -1.294522624700e+05 -1.654519525285e-05 1.300544206577e-15 1.570136922024e-09 0.000000000000e+00 0.000000000000e+00 
3.000000000000e+00 9.000000000000e+00 0.000000000000e+00 2.980953878357e+02 2.924023298157e-05 -1.413121088399e-09 -4.551487107937e+05 9.865818245428e-06 -1.570871241998e+05 -1.571118507960e+05 -1.514027248789e-05 1.002367133735e-15 1.256111085686e-09 0.000000000000e+00 0.000000000000e+00 
3.000000000000e+00 1.000000000000e+01 0.000000000000e+00 2.980953878341e+02 2.924023298174e-05 0.000000000000e+00 -4.551450822593e+05 -5.655750363783e-07 -1.570773140422e+05 -1.571082221202e+05 -1.514027249507e-05 -5.746242369603e-17 1.570130361914e-09 0.000000000000e+00 0.000000000000e+00 
4.000000000000e+00 9.000000000000e+00 0.000000000000e+00 2.981715560886e+02 1.449749617076e-05 -1.413122949328e-09 -4.551487107649e+05 -5.599048758769e-05 -1.727381351055e+05 -1.727628616744e+05 -1.434520113380e-05 -5.688633538909e-15 1.256109704116e-09 0.000000000000e+00 0.000000000000e+00 
4.000000000000e+00 1.000000000000e+01 0.000000000000e+00 2.981715560888e+02 1.449749616917e-05 0.000000000000e+00 -4.551450823950e+05 -9.647290979471e-06 -1.727283251717e+05 -1.727592333663e+05 -1.434520113066e-05 -9.801647635142e-16 1.570136285423e-09 0.000000000000e+00 0.000000000000e+00 
5.000000000000e+00 9.000000000000e+00 0.000000000000e+00 2.981423762001e+02 1.883664420857e-15 -1.413124119203e-09 -4.551487107823e+05 -2.441354598752e-06 -1.667422675846e+05 -1.667669941693e+05 -1.464979120394e-05 -2.480416272332e-16 1.256110504343e-09 0.000000000000e+00 0.000000000000e+00 
5.000000000000e+00 1.000000000000e+01 0.000000000000e+00 2.981423762001e+02 1.771687402977e-15 0.000000000000e+00 -4.551450824278e+05 9.980135923932e-07 -1.667324575969e+05 -1.667633658244e+05 -1.464979120345e-05 1.013981809871e-16 1.570137957826e-09 0.000000000000e+00 0.000000000000e+00 
0.000000000000e+00 8.000000000000e+00 0.000000000000e+00 3.080000000000e+02 0.000000000000e+00 -2.512219984241e-09 -4.551523391026e+05 -1.693256999537e-08 -2.192291214593e+06 -2.192309759497e+06 8.824759695604e-05 -1.720349111529e-18 9.420811128808e-10 0.000000000000e+00 0.000000000000e+00 
1.000000000000e+00 8.000000000000e+00 0.000000000000e+00 3.004302419164e+02 4.873968147930e-05 -2.512219908433e-09 -4.551523390787e+05 4.298143509136e-06 -6.368614714124e+05 -6.368800162976e+05 9.231766002723e-06 4.366913805282e-16 9.420801679581e-10 0.000000000000e+00 0.000000000000e+00 
2.000000000000e+00 8.000000000000e+00 0.000000000000e+00 2.979607954965e+02 4.508296685171e-05 -2.512219661522e-09 -4.551523390975e+05 3.252031779738e-06 -1.294409741429e+05 -1.294595190486e+05 -1.654519525848e-05 3.304064288214e-16 9.420812092298e-10 0.000000000000e+00 0.000000000000e+00 
3.000000000000e+00 8.000000000000e+00 0.000000000000e+00 2.980953878366e+02 2.924023298136e-05 -2.512219761638e-09 -4.551523392282e+05 -1.001347389353e-05 -1.570969343253e+05 -1.571154793465e+05 -1.514027248199e-05 -1.017368947582e-15 9.420870756441e-10 0.000000000000e+00 0.000000000000e+00 
4.000000000000e+00 8.000000000000e+00 0.000000000000e+00 2.981715560887e+02 1.449749617241e-05 -2.512220345613e-09 -4.551523391771e+05 -8.689091649009e-06 -1.727479450775e+05 -1.727664900574e+05 -1.434520113528e-05 -8.828117115393e-16 9.420849792092e-10 0.000000000000e+00 0.000000000000e+00 
5.000000000000e+00 8.000000000000e+00 0.000000000000e+00 2.981423761998e+02 2.013579349912e-15 -2.512220482481e-09 -4.551523391142e+05 1.810234367715e-06 -1.667520775387e+05 -1.667706224605e+05 -1.464979120601e-05 1.839198117598e-16 9.420820239415e-10 0.000000000000e+00 0.000000000000e+00 
0.000000000000e+00 7.000000000000e+00 0.000000000000e+00 3.080000000000e+02 0.000000000000e+00 -3.297287915319e-09 -4.551559674778e+05 2.274162355898e-06 -2.192301024570e+06 -2.192313387852e+06 8.824759695502e-05 2.310548953592e-16 6.280547333956e-10 0.000000000000e+00 0.000000000000e+00 
1.000000000000e+00 7.000000000000e+00 0.000000000000e+00 3.004302419167e+02 4.873968147905e-05 -3.297287778577e-09 -4.551559674934e+05 2.226781427637e-06 -6.368712814205e+05 -6.368836447173e+05 9.231766002975e-06 2.262409930479e-16 6.280554766707e-10 0.000000000000e+00 0.000000000000e+00 
2.000000000000e+00 7.000000000000e+00 0.000000000000e+00 2.979607954970e+02 4.508296685274e-05 -3.297288307034e-09 -4.551559675066e+05 -3.073648648798e-05 -1.294507842094e+05 -1.294631475172e+05 -1.654519525547e-05 -3.122827027178e-15 6.280560357250e-10 0.000000000000e+00 0.000000000000e+00 
3.000000000000e+00 7.000000000000e+00 0.000000000000e+00 2.980953878356e+02 2.924023298235e-05 -3.297289854121e-09 -4.551559674494e+05 -2.165293702329e-05 -1.571067442498e+05 -1.571191075035e+05 -1.514027248525e-05 -2.199938401566e-15 6.280532878470e-10 0.000000000000e+00 0.000000000000e+00 
4.000000000000e+00 7.000000000000e+00 0.000000000000e+00 2.981715560883e+02 1.449749617187e-05 -3.297289771654e-09 -4.551559674631e+05 1.895182664030e-05 -1.727577550648e+05 -1.727701183320e+05 -1.434520113586e-05 1.925505586654e-15 6.280539721057e-10 0.000000000000e+00 0.000000000000e+00 
5.000000000000e+00 7.000000000000e+00 0.000000000000e+00 2.981423762000e+02 1.834572343726e-15 -3.297289128358e-09 -4.551559674867e+05 3.905248682354e-06 -1.667618875806e+05 -1.667742508700e+05 -1.464979120413e-05 3.967732661272e-16 6.280551014352e-10 0.000000000000e+00 0.000000000000e+00 
0.000000000000e+00 6.000000000000e+00 0.000000000000e+00 3.080000000000e+02 0.000000000000e+00 -3.768329062893e-09 -4.551595958403e+05 7.270002463934e-07 -2.192310834565e+06 -2.192317016209e+06 8.824759695472e-05 7.386322503356e-17 3.140274842244e-10 0.000000000000e+00 0.000000000000e+00 
1.000000000000e+00 6.000000000000e+00 0.000000000000e+00 3.004302419167e+02 4.873968147924e-05 -3.768329092756e-09 -4.551595958356e+05 -3.291658633820e-06 -6.368810914371e+05 -6.368872730753e+05 9.231766003778e-06 -3.344325171961e-16 3.140272216733e-10 0.000000000000e+00 0.000000000000e+00 
2.000000000000e+00 6.000000000000e+00 0.000000000000e+00 2.979607954969e+02 4.508296685365e-05 -3.768329528872e-09 -4.551595958228e+05 -1.468890771780e-05 -1.294605942183e+05 -1.294667758441e+05 -1.654519525492e-05 -1.492393024128e-15 3.140265897110e-10 0.000000000000e+00 0.000000000000e+00 
3.000000000000e+00 6.000000000000e+00 0.000000000000e+00 2.980953878356e+02 2.924023298287e-05 -3.768330169902e-09 -4.551595958322e+05 -5.203602775206e-06 -1.571165542229e+05 -1.571227358588e+05 -1.514027248665e-05 -5.286860419610e-16 3.140271044050e-10 0.000000000000e+00 0.000000000000e+00 
4.000000000000e+00 6.000000000000e+00 0.000000000000e+00 2.981715560883e+02 1.449749617150e-05 -3.768330055443e-09 -4.551595958196e+05 5.369784171725e-06 -1.727675650590e+05 -1.727737466827e+05 -1.434520113616e-05 5.455700718473e-16 3.140264826764e-10 0.000000000000e+00 0.000000000000e+00 
5.000000000000e+00 6.000000000000e+00 0.000000000000e+00 2.981423762000e+02 1.812796651456e-15 -3.768330011761e-09 -4.551595958277e+05 -3.562610921515e-06 -1.667716975981e+05 -1.667778792284e+05 -1.464979120324e-05 -3.619612696259e-16 3.140268217012e-10 0.000000000000e+00 0.000000000000e+00 
0.000000000000e+00 5.000000000000e+00 0.000000000000e+00 3.080000000000e+02 0.000000000000e+00 -3.925342882235e-09 -4.551632242004e+05 4.451242420960e-07 -2.192320644561e+06 -2.192320644565e+06 8.824759695451e-05 4.522462299695e-17 1.931475262151e-16 0.000000000000e+00 0.000000000000e+00 
1.000000000000e+00 5.000000000000e+00 0.000000000000e+00 3.004302419168e+02 4.873968147928e-05 -3.925342871401e-09 -4.551632242047e+05 -1.806850354404e-07 -6.368909014419e+05 -6.368909014491e+05 9.231766004016e-06 -1.835759960075e-17 3.678785214521e-16 0.000000000000e+00 0.000000000000e+00 
2.000000000000e+00 5.000000000000e+00 0.000000000000e+00 2.979607954971e+02 4.508296685418e-05 -3.925342997776e-09 -4.551632242037e+05 -4.682630288977e-06 -1.294704042354e+05 -1.294704042414e+05 -1.654519525409e-05 -4.757552373600e-16 3.004286627715e-16 0.000000000000e+00 0.000000000000e+00 
3.000000000000e+00 5.000000000000e+00 0.000000000000e+00 2.980953878354e+02 2.924023298308e-05 -3.925343224830e-09 -4.551632241750e+05 -2.433014469871e-06 -1.571263641911e+05 -1.571263641714e+05 -1.514027248819e-05 -2.471942701389e-16 -1.004241913629e-15 0.000000000000e+00 0.000000000000e+00 
4.000000000000e+00 5.000000000000e+00 0.000000000000e+00 2.981715560885e+02 1.449749617130e-05 -3.925343210484e-09 -4.551632241947e+05 2.139360610859e-06 -1.727773750744e+05 -1.727773750715e+05 -1.434520113546e-05 2.173590380633e-16 -1.450289412697e-16 0.000000000000e+00 0.000000000000e+00 
5.000000000000e+00 5.000000000000e+00 0.000000000000e+00 2.981423762001e+02 2.045613955441e-15 -3.925343238156e-09 -4.551632241886e+05 -4.544846326441e-06 -1.667815076032e+05 -1.667815075949e+05 -1.464979120296e-05 -4.617563867664e-16 -4.198543725258e-16 0.000000000000e+00 0.000000000000e+00 
0.000000000000e+00 4.000000000000e+00 0.000000000000e+00 3.080000000000e+02 0.000000000000e+00 -3.768329318431e-09 -4.551668525566e+05 -7.356833158335e-08 -2.192330454562e+06 -2.192324272921e+06 8.824759695452e-05 -7.474542488869e-18 -3.140273333036e-10 0.000000000000e+00 0.000000000000e+00 
1.000000000000e+00 4.000000000000e+00 0.000000000000e+00 3.004302419168e+02 4.873968147934e-05 -3.768329333955e-09 -4.551668525546e+05 -8.179380491685e-07 -6.369007114446e+05 -6.368945298023e+05 9.231766004183e-06 -8.310250579552e-17 -3.140274317767e-10 0.000000000000e+00 0.000000000000e+00 
2.000000000000e+00 4.000000000000e+00 0.000000000000e+00 2.979607954970e+02 4.508296685415e-05 -3.768329327023e-09 -4.551668525509e+05 2.503844910362e-06 -1.294802142246e+05 -1.294740325789e+05 -1.654519525458e-05 2.543906428927e-16 -3.140276028406e-10 0.000000000000e+00 0.000000000000e+00 
3.000000000000e+00 4.000000000000e+00 0.000000000000e+00 2.980953878356e+02 2.924023298313e-05 -3.768329207214e-09 -4.551668525615e+05 3.718398791489e-07 -1.571361742079e+05 -1.571299925721e+05 -1.514027248746e-05 3.777893172153e-17 -3.140270959464e-10 0.000000000000e+00 0.000000000000e+00 
4.000000000000e+00 4.000000000000e+00 0.000000000000e+00 2.981715560884e+02 1.449749617136e-05 -3.768329309609e-09 -4.551668525498e+05 -2.351160641416e-06 -1.727871850606e+05 -1.727810034141e+05 -1.434520113609e-05 -2.388779211679e-16 -3.140276431518e-10 0.000000000000e+00 0.000000000000e+00 
5.000000000000e+00 4.000000000000e+00 0.000000000000e+00 2.981423762002e+02 2.208015423806e-15 -3.768329401677e-09 -4.551668525589e+05 -3.282223746075e-06 -1.667913176181e+05 -1.667851359797e+05 -1.464979120223e-05 -3.334739326012e-16 -3.140272303776e-10 0.000000000000e+00 0.000000000000e+00 
0.000000000000e+00 3.000000000000e+00 0.000000000000e+00 3.080000000000e+02 0.000000000000e+00 -3.297288223054e-09 -4.551704809127e+05 -3.113018537583e-08 -2.192340264561e+06 -2.192327901277e+06 8.824759695452e-05 -3.162826834184e-18 -6.280548357973e-10 0.000000000000e+00 0.000000000000e+00 
1.000000000000e+00 3.000000000000e+00 0.000000000000e+00 3.004302419168e+02 4.873968147930e-05 -3.297288196061e-09 -4.551704809126e+05 1.427092494388e-06 -6.369105214428e+05 -6.368981581584e+05 9.231766004087e-06 1.449925974298e-16 -6.280548429005e-10 0.000000000000e+00 0.000000000000e+00 
2.000000000000e+00 3.000000000000e+00 0.000000000000e+00 2.979607954970e+02 4.508296685409e-05 -3.297288102767e-09 -4.551704809118e+05 1.917678153653e-06 -1.294900242268e+05 -1.294776609415e+05 -1.654519525449e-05 1.948361004111e-16 -6.280548946836e-10 0.000000000000e+00 0.000000000000e+00 
3.000000000000e+00 3.000000000000e+00 0.000000000000e+00 2.980953878356e+02 2.924023298308e-05 -3.297288007245e-09 -4.551704809043e+05 1.337199207245e-06 -1.571459842062e+05 -1.571336209139e+05 -1.514027248751e-05 1.358594394561e-16 -6.280552512751e-10 0.000000000000e+00 0.000000000000e+00 
4.000000000000e+00 3.000000000000e+00 0.000000000000e+00 2.981715560884e+02 1.449749617143e-05 -3.297287972324e-09 -4.551704809083e+05 -8.581100640868e-07 -1.727969950663e+05 -1.727846317782e+05 -1.434520113581e-05 -8.718398251122e-17 -6.280550370413e-10 0.000000000000e+00 0.000000000000e+00 
5.000000000000e+00 3.000000000000e+00 0.000000000000e+00 2.981423762002e+02 2.428539522291e-15 -3.297288116993e-09 -4.551704809025e+05 -4.336964370710e-06 -1.668011276177e+05 -1.667887643235e+05 -1.464979120222e-05 -4.406355800642e-16 -6.280553473158e-10 0.000000000000e+00 0.000000000000e+00 
0.000000000000e+00 2.000000000000e+00 0.000000000000e+00 3.080000000000e+02 0.000000000000e+00 -2.512219657945e-09 -4.551741092693e+05 -2.111010327364e-07 -2.192350074561e+06 -2.192331529633e+06 8.824759695449e-05 -2.144786492601e-17 -9.420823058456e-10 0.000000000000e+00 0.000000000000e+00 
1.000000000000e+00 2.000000000000e+00 0.000000000000e+00 3.004302419168e+02 4.873968147924e-05 -2.512219651481e-09 -4.551741092711e+05 7.539469403775e-07 -6.369203314403e+05 -6.369017865147e+05 9.231766003975e-06 7.660100914235e-17 -9.420822212668e-10 0.000000000000e+00 0.000000000000e+00 
2.000000000000e+00 2.000000000000e+00 0.000000000000e+00 2.979607954970e+02 4.508296685388e-05 -2.512219507344e-09 -4.551741092713e+05 6.208642369415e-06 -1.294998342235e+05 -1.294812892971e+05 -1.654519525469e-05 6.307980647326e-16 -9.420822608822e-10 0.000000000000e+00 0.000000000000e+00 
3.000000000000e+00 2.000000000000e+00 0.000000000000e+00 2.980953878356e+02 2.924023298284e-05 -2.512219063434e-09 -4.551741092630e+05 1.213374406658e-05 -1.571557942107e+05 -1.571372492767e+05 -1.514027248731e-05 1.232788397165e-15 -9.420826468147e-10 0.000000000000e+00 0.000000000000e+00 
4.000000000000e+00 2.000000000000e+00 0.000000000000e+00 2.981715560884e+02 1.449749617148e-05 -2.512218699818e-09 -4.551741092423e+05 -1.363859528355e-06 -1.728068050712e+05 -1.727882601184e+05 -1.434520113549e-05 -1.385681280808e-16 -9.420836051854e-10 0.000000000000e+00 0.000000000000e+00 
5.000000000000e+00 2.000000000000e+00 0.000000000000e+00 2.981423762002e+02 2.753563464747e-15 -2.512219134415e-09 -4.551741092642e+05 -1.200499796963e-05 -1.668109376222e+05 -1.667923926892e+05 -1.464979120201e-05 -1.219707793714e-15 -9.420825939860e-10 0.000000000000e+00 0.000000000000e+00 
0.000000000000e+00 1.000000000000e+00 0.000000000000e+00 3.080000000000e+02 0.000000000000e+00 -1.413123564994e-09 -4.551777376238e+05 5.871101226262e-07 -2.192359884562e+06 -2.192335157989e+06 8.824759695458e-05 5.965038845882e-17 -1.256109898054e-09 0.000000000000e+00 0.000000000000e+00 
1.000000000000e+00 1.000000000000e+00 0.000000000000e+00 3.004302419168e+02 4.873968147929e-05 -1.413123616927e-09 -4.551777376235e+05 -4.820069578444e-06 -6.369301414400e+05 -6.369054148672e+05 9.231766003982e-06 -4.897190691699e-16 -1.256109897304e-09 0.000000000000e+00 0.000000000000e+00 
2.000000000000e+00 1.000000000000e+00 0.000000000000e+00 2.979607954970e+02 4.508296685359e-05 -1.413123744743e-09 -4.551777376384e+05 4.097043423709e-06 -1.295096442092e+05 -1.294849176508e+05 -1.654519525537e-05 4.162596118488e-16 -1.256109169953e-09 0.000000000000e+00 0.000000000000e+00 
3.000000000000e+00 1.000000000000e+00 0.000000000000e+00 2.980953878357e+02 2.924023298210e-05 -1.413123164642e-09 -4.551777376381e+05 1.658746485873e-05 -1.571656042031e+05 -1.571408776447e+05 -1.514027248766e-05 1.685286429647e-15 -1.256109162311e-09 0.000000000000e+00 0.000000000000e+00 
4.000000000000e+00 1.000000000000e+00 0.000000000000e+00 2.981715560888e+02 1.449749617150e-05 -1.413122686670e-09 -4.551777376551e+05 1.886766679106e-06 -1.728166151148e+05 -1.727918885712e+05 -1.434520113346e-05 1.916954945971e-16 -1.256108415220e-09 0.000000000000e+00 0.000000000000e+00 
5.000000000000e+00 1.000000000000e+00 0.000000000000e+00 2.981423762002e+02 3.386129774471e-15 -1.413122959199e-09 -4.551777376252e+05 -1.000040225323e-05 -1.668207476074e+05 -1.667960210366e+05 -1.464979120270e-05 -1.016040868929e-15 -1.256109797631e-09 0.000000000000e+00 0.000000000000e+00 
0.000000000000e+00 0.000000000000e+00 0.000000000000e+00 3.080000000000e+02 0.000000000000e+00 0.000000000000e+00 -4.551813659843e+05 5.341751028111e-07 -2.192369694559e+06 -2.192338786346e+06 8.824759695437e-05 5.427219044560e-17 -1.570137213436e-09 0.000000000000e+00 0.000000000000e+00 
1.000000000000e+00 0.000000000000e+00 0.000000000000e+00 3.004302419169e+02 4.873968147948e-05 0.000000000000e+00 -4.551813659825e+05 -1.974618531388e-06 -6.369399514545e+05 -6.369090432395e+05 9.231766004660e-06 -2.006212427891e-16 -1.570137318950e-09 0.000000000000e+00 0.000000000000e+00 
2.000000000000e+00 0.000000000000e+00 0.000000000000e+00 2.979607954967e+02 4.508296685351e-05 0.000000000000e+00 -4.551813659573e+05 -3.594398100430e-07 -1.295194541805e+05 -1.294885459437e+05 -1.654519525669e-05 -3.651908470037e-17 -1.570138427784e-09 0.000000000000e+00 0.000000000000e+00 
3.000000000000e+00 0.000000000000e+00 0.000000000000e+00 2.980953878357e+02 2.924023298170e-05 0.000000000000e+00 -4.551813659858e+05 9.966742077402e-07 -1.571754142166e+05 -1.571445060051e+05 -1.514027248702e-05 1.012620995064e-16 -1.570137147899e-09 0.000000000000e+00 0.000000000000e+00 
4.000000000000e+00 0.000000000000e+00 0.000000000000e+00 2.981715560887e+02 1.449749617138e-05 0.000000000000e+00 -4.551813659916e+05 1.109309015094e-06 -1.728264251130e+05 -1.727955169069e+05 -1.434520113350e-05 1.127057959336e-16 -1.570136870382e-09 0.000000000000e+00 0.000000000000e+00 
5.000000000000e+00 0.000000000000e+00 0.000000000000e+00 2.981423762003e+02 3.540176482537e-15 0.000000000000e+00 -4.551813660074e+05 1.192368580487e-06 -1.668305576204e+05 -1.667996494298e+05 -1.464979120214e-05 1.211446477775e-16 -1.570136082339e-09 0.000000000000e+00 0.000000000000e+00 
6.000000000000e+00 9.000000000000e+00 0.000000000000e+00 2.981715560887e+02 -1.449749616653e-05 -1.413123973981e-09 -4.551487107673e+05 -4.122497497188e-07 -1.727381351239e+05 -1.727628616954e+05 -1.434520113285e-05 -4.188457457143e-17 1.256109835435e-09 0.000000000000e+00 0.000000000000e+00 
6.000000000000e+00 1.000000000000e+01 0.000000000000e+00 2.981715560887e+02 -1.449749616653e-05 0.000000000000e+00 -4.551450824260e+05 -1.542517496809e-07 -1.727283251155e+05 -1.727592333451e+05 -1.434520113331e-05 -1.567197776758e-17 1.570138066204e-09 0.000000000000e+00 0.000000000000e+00 
7.000000000000e+00 9.000000000000e+00 0.000000000000e+00 2.980953878356e+02 -2.924023297685e-05 -1.413124146538e-09 -4.551487107869e+05 6.515008650796e-06 -1.570871241993e+05 -1.571118507892e+05 -1.514027248789e-05 6.619248789209e-16 1.256110763924e-09 0.000000000000e+00 0.000000000000e+00 
7.000000000000e+00 1.000000000000e+01 0.000000000000e+00 2.980953878357e+02 -2.924023297660e-05 0.000000000000e+00 -4.551450824173e+05 3.606145410645e-06 -1.570773142243e+05 -1.571082224444e+05 -1.514027248662e-05 3.663843737215e-16 1.570137580611e-09 0.000000000000e+00 0.000000000000e+00 
8.000000000000e+00 9.000000000000e+00 0.000000000000e+00 2.979607954966e+02 -4.508296685061e-05 -1.413124055319e-09 -4.551487107878e+05 -2.517892113323e-05 -1.294311641276e+05 -1.294558907181e+05 -1.654519525954e-05 -2.558178387136e-15 1.256110799265e-09 0.000000000000e+00 0.000000000000e+00 
8.000000000000e+00 1.000000000000e+01 0.000000000000e+00 2.979607954961e+02 -4.508296685143e-05 0.000000000000e+00 -4.551450823984e+05 -5.491096131039e-06 -1.294213540430e+05 -1.294522622515e+05 -1.654519526346e-05 -5.578953669135e-16 1.570136993953e-09 0.000000000000e+00 0.000000000000e+00 
9.000000000000e+00 9.000000000000e+00 0.000000000000e+00 3.004302419167e+02 -4.873968147874e-05 -1.413125853364e-09 -4.551487107702e+05 -2.212118496146e-05 -6.368516614252e+05 -6.368763879991e+05 9.231766003228e-06 -2.247512392084e-15 1.256109950687e-09 0.000000000000e+00 0.000000000000e+00 
9.000000000000e+00 1.000000000000e+01 0.000000000000e+00 3.004302419176e+02 -4.873968147941e-05 0.000000000000e+00 -4.551450825123e+05 -3.326007711881e-06 -6.368418515190e+05 -6.368727598275e+05 9.231766007609e-06 -3.379223835271e-16 1.570142069772e-09 0.000000000000e+00 0.000000000000e+00 
1.000000000000e+01 9.000000000000e+00 0.000000000000e+00 3.080000000000e+02 0.000000000000e+00 -1.413125706998e-09 -4.551487107805e+05 1.085687680004e-05 -2.192281404557e+06 -2.192306131140e+06 8.824759695428e-05 1.103058682885e-15 1.256110431311e-09 0.000000000000e+00 0.000000000000e+00 
1.000000000000e+01 1.000000000000e+01 0.000000000000e+00 3.080000000000e+02 0.000000000000e+00 0.000000000000e+00 -4.551450824813e+05 3.661032443611e-06 -2.192271594497e+06 -2.192302502783e+06 8.824759695135e-05 3.719608962708e-16 1.570140935881e-09 0.000000000000e+00 0.000000000000e+00 
6.000000000000e+00 8.000000000000e+00 0.000000000000e+00 2.981715560890e+02 -1.449749616650e-05 -2.512220443059e-09 -4.551523391419e+05 5.037638194306e-08 -1.727479451638e+05 -1.727664901073e+05 -1.434520113096e-05 5.118240405415e-18 9.420831309640e-10 0.000000000000e+00 0.000000000000e+00 
7.000000000000e+00 8.000000000000e+00 0.000000000000e+00 2.980953878353e+02 -2.924023297681e-05 -2.512220556700e-09 -4.551523391152e+05 -4.705001784795e-06 -1.570969341610e+05 -1.571154790813e+05 -1.514027248972e-05 -4.780281813351e-16 9.420819525373e-10 0.000000000000e+00 0.000000000000e+00 
8.000000000000e+00 8.000000000000e+00 0.000000000000e+00 2.979607954969e+02 -4.508296684983e-05 -2.512220892513e-09 -4.551523391475e+05 -9.144412667470e-06 -1.294409741980e+05 -1.294595191441e+05 -1.654519525618e-05 -9.290723270149e-16 9.420832630237e-10 0.000000000000e+00 0.000000000000e+00 
9.000000000000e+00 8.000000000000e+00 0.000000000000e+00 3.004302419162e+02 -4.873968147804e-05 -2.512221308067e-09 -4.551523390865e+05 -4.867114892730e-06 -6.368614713544e+05 -6.368800162480e+05 9.231765999805e-06 -4.944988731014e-16 9.420805978323e-10 0.000000000000e+00 0.000000000000e+00 
1.000000000000e+01 8.000000000000e+00 0.000000000000e+00 3.080000000000e+02 0.000000000000e+00 -2.512221382132e-09 -4.551523391000e+05 4.856329147428e-07 -2.192291214594e+06 -2.192309759497e+06 8.824759695615e-05 4.934030413787e-17 9.420810440331e-10 0.000000000000e+00 0.000000000000e+00 
6.000000000000e+00 7.000000000000e+00 0.000000000000e+00 2.981715560887e+02 -1.449749616645e-05 -3.297289352620e-09 -4.551559674789e+05 -3.369649372502e-06 -1.727577551317e+05 -1.727701184142e+05 -1.434520113249e-05 -3.423563762462e-16 6.280547499774e-10 0.000000000000e+00 0.000000000000e+00 
7.000000000000e+00 7.000000000000e+00 0.000000000000e+00 2.980953878356e+02 -2.924023297655e-05 -3.297289358283e-09 -4.551559674983e+05 -4.967773617830e-06 -1.571067442051e+05 -1.571191075052e+05 -1.514027248765e-05 -5.047257995716e-16 6.280556425423e-10 0.000000000000e+00 0.000000000000e+00 
8.000000000000e+00 7.000000000000e+00 0.000000000000e+00 2.979607954966e+02 -4.508296684966e-05 -3.297289711913e-09 -4.551559674719e+05 8.645229119757e-07 -1.294507841452e+05 -1.294631474215e+05 -1.654519525856e-05 8.783552785673e-17 6.280544334742e-10 0.000000000000e+00 0.000000000000e+00 
9.000000000000e+00 7.000000000000e+00 0.000000000000e+00 3.004302419166e+02 -4.873968147816e-05 -3.297289338397e-09 -4.551559674930e+05 6.034740984195e-06 -6.368712813927e+05 -6.368836446883e+05 9.231766001522e-06 6.131296839942e-16 6.280554194335e-10 0.000000000000e+00 0.000000000000e+00 
1.000000000000e+01 7.000000000000e+00 0.000000000000e+00 3.080000000000e+02 0.000000000000e+00 -3.297289392348e-09 -4.551559674822e+05 -2.956242203982e-06 -2.192301024567e+06 -2.192313387852e+06 8.824759695481e-05 -3.003542079246e-16 6.280549186791e-10 0.000000000000e+00 0.000000000000e+00 
6.000000000000e+00 6.000000000000e+00 0.000000000000e+00 2.981715560887e+02 -1.449749616617e-05 -3.768330297056e-09 -4.551595958319e+05 -7.285173813844e-06 -1.727675651282e+05 -1.727737467633e+05 -1.434520113268e-05 -7.401736594866e-16 3.140270625896e-10 0.000000000000e+00 0.000000000000e+00 
7.000000000000e+00 6.000000000000e+00 0.000000000000e+00 2.980953878355e+02 -2.924023297637e-05 -3.768330573638e-09 -4.551595958293e+05 -3.154747697769e-06 -1.571165542027e+05 -1.571227358349e+05 -1.514027248772e-05 -3.205223660934e-16 3.140269151909e-10 0.000000000000e+00 0.000000000000e+00 
8.000000000000e+00 6.000000000000e+00 0.000000000000e+00 2.979607954966e+02 -4.508296684970e-05 -3.768330632369e-09 -4.551595958349e+05 2.974422545942e-07 -1.294605941384e+05 -1.294667757769e+05 -1.654519525895e-05 3.022013306677e-17 3.140272371076e-10 0.000000000000e+00 0.000000000000e+00 
9.000000000000e+00 6.000000000000e+00 0.000000000000e+00 3.004302419166e+02 -4.873968147828e-05 -3.768330613181e-09 -4.551595958363e+05 7.508250943822e-07 -6.368810913977e+05 -6.368872730366e+05 9.231766001780e-06 7.628382958923e-17 3.140272579536e-10 0.000000000000e+00 0.000000000000e+00 
1.000000000000e+01 6.000000000000e+00 0.000000000000e+00 3.080000000000e+02 0.000000000000e+00 -3.768330581026e-09 -4.551595958387e+05 3.861598524570e-07 -2.192310834567e+06 -2.192317016209e+06 8.824759695480e-05 3.923384100963e-17 3.140274065630e-10 0.000000000000e+00 0.000000000000e+00 
6.000000000000e+00 5.000000000000e+00 0.000000000000e+00 2.981715560887e+02 -1.449749616581e-05 -3.925343614509e-09 -4.551632241891e+05 -8.670952454164e-06 -1.727773751259e+05 -1.727773751183e+05 -1.434520113280e-05 -8.809687693431e-16 -3.860232651202e-16 0.000000000000e+00 0.000000000000e+00 
7.000000000000e+00 5.000000000000e+00 0.000000000000e+00 2.980953878355e+02 -2.924023297616e-05 -3.925343942091e-09 -4.551632241921e+05 -4.960599480470e-06 -1.571263641987e+05 -1.571263641941e+05 -1.514027248790e-05 -5.039969072157e-16 -2.358190824008e-16 0.000000000000e+00 0.000000000000e+00 
8.000000000000e+00 5.000000000000e+00 0.000000000000e+00 2.979607954966e+02 -4.508296684963e-05 -3.925344118582e-09 -4.551632241928e+05 -2.185304882771e-06 -1.294704041372e+05 -1.294704041331e+05 -1.654519525903e-05 -2.220269760895e-16 -2.070117353317e-16 0.000000000000e+00 0.000000000000e+00 
9.000000000000e+00 5.000000000000e+00 0.000000000000e+00 3.004302419166e+02 -4.873968147828e-05 -3.925344177719e-09 -4.551632241937e+05 -5.513037231437e-07 -6.368909013962e+05 -6.368909013930e+05 9.231766001725e-06 -5.601245827140e-17 -1.638500432765e-16 0.000000000000e+00 0.000000000000e+00 
1.000000000000e+01 5.000000000000e+00 0.000000000000e+00 3.080000000000e+02 0.000000000000e+00 -3.925344190313e-09 -4.551632241940e+05 -3.875818279445e-08 -2.192320644568e+06 -2.192320644565e+06 8.824759695484e-05 -3.937831371916e-18 -1.470773648002e-16 0.000000000000e+00 0.000000000000e+00 
6.000000000000e+00 4.000000000000e+00 0.000000000000e+00 2.981715560887e+02 -1.449749616540e-05 -3.768329700915e-09 -4.551668525537e+05 -7.369909290398e-06 -1.727871851230e+05 -1.727810034801e+05 -1.434520113294e-05 -7.487827839044e-16 -3.140274582517e-10 0.000000000000e+00 0.000000000000e+00 
7.000000000000e+00 4.000000000000e+00 0.000000000000e+00 2.980953878355e+02 -2.924023297589e-05 -3.768330030340e-09 -4.551668525515e+05 -5.284073112645e-06 -1.571361741951e+05 -1.571299925498e+05 -1.514027248809e-05 -5.368618282447e-16 -3.140275789058e-10 0.000000000000e+00 0.000000000000e+00 
8.000000000000e+00 4.000000000000e+00 0.000000000000e+00 2.979607954966e+02 -4.508296684951e-05 -3.768330218406e-09 -4.551668525510e+05 -2.438155827338e-06 -1.294802141352e+05 -1.294740324894e+05 -1.654519525913e-05 -2.477166320575e-16 -3.140276105540e-10 0.000000000000e+00 0.000000000000e+00 
9.000000000000e+00 4.000000000000e+00 0.000000000000e+00 3.004302419166e+02 -4.873968147825e-05 -3.768330295381e-09 -4.551668525514e+05 -7.520475829452e-07 -6.369007113950e+05 -6.368945297495e+05 9.231766001665e-06 -7.640803442723e-17 -3.140275903968e-10 0.000000000000e+00 0.000000000000e+00 
1.000000000000e+01 4.000000000000e+00 0.000000000000e+00 3.080000000000e+02 0.000000000000e+00 -3.768330304789e-09 -4.551668525506e+05 9.464526579463e-08 -2.192330454567e+06 -2.192324272921e+06 8.824759695482e-05 9.615959004734e-18 -3.140276276966e-10 0.000000000000e+00 0.000000000000e+00 
6.000000000000e+00 3.000000000000e+00 0.000000000000e+00 2.981715560887e+02 -1.449749616509e-05 -3.297288403510e-09 -4.551704809067e+05 -6.450470791832e-06 -1.727969951257e+05 -1.727846318356e+05 -1.434520113281e-05 -6.553678324501e-16 -6.280551373678e-10 0.000000000000e+00 0.000000000000e+00 
7.000000000000e+00 3.000000000000e+00 0.000000000000e+00 2.980953878355e+02 -2.924023297561e-05 -3.297288752222e-09 -4.551704809095e+05 -7.279747637913e-06 -1.571459841922e+05 -1.571336209049e+05 -1.514027248824e-05 -7.396223600119e-16 -6.280549936767e-10 0.000000000000e+00 0.000000000000e+00 
8.000000000000e+00 3.000000000000e+00 0.000000000000e+00 2.979607954966e+02 -4.508296684940e-05 -3.297289005584e-09 -4.551704809142e+05 -1.727229306605e-06 -1.294900241322e+05 -1.294776608490e+05 -1.654519525931e-05 -1.754864975511e-16 -6.280547838772e-10 0.000000000000e+00 0.000000000000e+00 
9.000000000000e+00 3.000000000000e+00 0.000000000000e+00 3.004302419166e+02 -4.873968147826e-05 -3.297288947842e-09 -4.551704809070e+05 2.338934314702e-06 -6.369105213933e+05 -6.368981581038e+05 9.231766001598e-06 2.376357263737e-16 -6.280551075052e-10 0.000000000000e+00 0.000000000000e+00 
1.000000000000e+01 3.000000000000e+00 0.000000000000e+00 3.080000000000e+02 0.000000000000e+00 -3.297288902245e-09 -4.551704809052e+05 4.186197283084e-08 -2.192340264569e+06 -2.192327901277e+06 8.824759695489e-05 4.253176439613e-18 -6.280552033370e-10 0.000000000000e+00 0.000000000000e+00 
6.000000000000e+00 2.000000000000e+00 0.000000000000e+00 2.981715560887e+02 -1.449749616470e-05 -2.512219586926e-09 -4.551741092664e+05 -8.381688234111e-06 -1.728068051255e+05 -1.727882601948e+05 -1.434520113284e-05 -8.515795245857e-16 -9.420824761843e-10 0.000000000000e+00 0.000000000000e+00 
7.000000000000e+00 2.000000000000e+00 0.000000000000e+00 2.980953878355e+02 -2.924023297523e-05 -2.512219994466e-09 -4.551741092662e+05 -7.321380746655e-06 -1.571557941927e+05 -1.571372492617e+05 -1.514027248823e-05 -7.438522838601e-16 -9.420824944973e-10 0.000000000000e+00 0.000000000000e+00 
8.000000000000e+00 2.000000000000e+00 0.000000000000e+00 2.979607954964e+02 -4.508296684938e-05 -2.512220166120e-09 -4.551741092577e+05 2.166153470208e-06 -1.294998341169e+05 -1.294812891780e+05 -1.654519526005e-05 2.200811925732e-16 -9.420828974417e-10 0.000000000000e+00 0.000000000000e+00 
9.000000000000e+00 2.000000000000e+00 0.000000000000e+00 3.004302419166e+02 -4.873968147842e-05 -2.512219947623e-09 -4.551741092571e+05 3.458695193623e-06 -6.369203313999e+05 -6.369017864606e+05 9.231766001937e-06 3.514034316721e-16 -9.420829147328e-10 0.000000000000e+00 0.000000000000e+00 
1.000000000000e+01 2.000000000000e+00 0.000000000000e+00 3.080000000000e+02 0.000000000000e+00 -2.512219926096e-09 -4.551741092613e+05 -9.722785610192e-07 -2.192350074569e+06 -2.192331529633e+06 8.824759695491e-05 -9.878350179956e-17 -9.420827364251e-10 0.000000000000e+00 0.000000000000e+00 
6.000000000000e+00 1.000000000000e+00 0.000000000000e+00 2.981715560888e+02 -1.449749616426e-05 -1.413123409594e-09 -4.551777376239e+05 -9.812680724038e-06 -1.728166151281e+05 -1.727918885556e+05 -1.434520113267e-05 -9.969683615622e-16 -1.256109883777e-09 0.000000000000e+00 0.000000000000e+00 
7.000000000000e+00 1.000000000000e+00 0.000000000000e+00 2.980953878355e+02 -2.924023297492e-05 -1.413123831469e-09 -4.551777376253e+05 -7.583176925980e-06 -1.571656041844e+05 -1.571408776131e+05 -1.514027248862e-05 -7.704507756796e-16 -1.256109817831e-09 0.000000000000e+00 0.000000000000e+00 
8.000000000000e+00 1.000000000000e+00 0.000000000000e+00 2.979607954965e+02 -4.508296684953e-05 -1.413123958867e-09 -4.551777376320e+05 4.063443471324e-06 -1.295096441055e+05 -1.294849175408e+05 -1.654519526064e-05 4.128458566865e-16 -1.256109489685e-09 0.000000000000e+00 0.000000000000e+00 
9.000000000000e+00 1.000000000000e+00 0.000000000000e+00 3.004302419167e+02 -4.873968147857e-05 -1.413123652629e-09 -4.551777376282e+05 4.928430359856e-06 -6.369301414130e+05 -6.369054148442e+05 9.231766002570e-06 5.007285245614e-16 -1.256109695511e-09 0.000000000000e+00 0.000000000000e+00 
1.000000000000e+01 1.000000000000e+00 0.000000000000e+00 3.080000000000e+02 0.000000000000e+00 -1.413123617972e-09 -4.551777376239e+05 -1.164345682881e-06 -2.192359884562e+06 -2.192335157989e+06 8.824759695457e-05 -1.182975213807e-16 -1.256109888798e-09 0.000000000000e+00 0.000000000000e+00 
6.000000000000e+00 0.000000000000e+00 0.000000000000e+00 2.981715560888e+02 -1.449749616394e-05 0.000000000000e+00 -4.551813659894e+05 -1.670696733292e-06 -1.728264251264e+05 -1.727955169189e+05 -1.434520113278e-05 -1.697427881025e-16 -1.570136940928e-09 0.000000000000e+00 0.000000000000e+00 
7.000000000000e+00 0.000000000000e+00 0.000000000000e+00 2.980953878354e+02 -2.924023297466e-05 0.000000000000e+00 -4.551813659698e+05 -1.665583589483e-06 -1.571754141830e+05 -1.571445059569e+05 -1.514027248866e-05 -1.692232926915e-16 -1.570137887538e-09 0.000000000000e+00 0.000000000000e+00 
8.000000000000e+00 0.000000000000e+00 0.000000000000e+00 2.979607954963e+02 -4.508296684962e-05 0.000000000000e+00 -4.551813659572e+05 3.843349859188e-07 -1.295194540891e+05 -1.294885458513e+05 -1.654519526138e-05 3.904843456935e-17 -1.570138482555e-09 0.000000000000e+00 0.000000000000e+00 
9.000000000000e+00 0.000000000000e+00 0.000000000000e+00 3.004302419167e+02 -4.873968147876e-05 0.000000000000e+00 -4.551813659775e+05 1.483806420477e-06 -6.369399514238e+05 -6.369090432038e+05 9.231766003092e-06 1.507547323204e-16 -1.570137577593e-09 0.000000000000e+00 0.000000000000e+00 
1.000000000000e+01 0.000000000000e+00 0.000000000000e+00 3.080000000000e+02 0.000000000000e+00 0.000000000000e+00 -4.551813659820e+05 -1.060951548845e-07 -2.192369694561e+06 -2.192338786346e+06 8.824759695448e-05 -1.077926773626e-17 -1.570137330385e-09 0.000000000000e+00 0.000000000000e+00 
1  2  3  4  
4  3  5  6  
6  5  7  8  
8  7  9  10  
10  9  11  12  
2  13  14  3  
3  14  15  5  
5  15  16  7  
7  16  17  9  
9  17  18  11  
13  19  20  14  
14  20  21  15  
15  21  22  16  
16  22  23  17  
17  23  24  18  
19  25  26  20  
20  26  27  21  
21  27  28  22  
22  28  29  23  
23  29  30  24  
25  31  32  26  
26  32  33  27  
27  33  34  28  
28  34  35  29  
29  35  36  30  
31  37  38  32  
32  38  39  33  
33  39  40  34  
34  40  41  35  
35  41  42  36  
37  43  44  38  
38  44  45  39  
39  45  46  40  
40  46  47  41  
41  47  48  42  
43  49  50  44  
44  50  51  45  
45  51  52  46  
46  52  53  47  
47  53  54  48  
49  55  56  50  
50  56  57  51  
51  57  58  52  
52  58  59  53  
53  59  60  54  
55  61  62  56  
56  62  63  57  
57  63  64  58  
58  64  65  59  
59  65  66  60  
12  11  67  68  
68  67  69  70  
70  69  71  72  
72  71  73  74  
74  73  75  76  
11  18  77  67  
67  77  78  69  
69  78  79  71  
71  79  80  73  
73  80  81  75  
18  24  82  77  
77  82  83  78  
78  83  84  79  
79  84  85  80  
80  85  86  81  
24  30  87  82  
82  87  88  83  
83  88  89  84  
84  89  90  85  
85  90  91  86  
30  36  92  87  
87  92  93  88  
88  93  94  89  
89  94  95  90  
90  95  96  91  
36  42  97  92  
92  97  98  93  
93  98  99  94  
94  99  100  95  
95  100  101  96  
42  48  102  97  
97  102  103  98  
98  103  104  99  
99  104  105  100  
100  105  106  101  
48  54  107  102  
102  107  108  103  
103  108  109  104  
104  109  110  105  
105  110  111  106  
54  60  112  107  
107  112  113  108  
108  113  114  109  
109  114  115  110  
110  115  116  111  
60  66  117  112  
112  117  118  113  
113  118  119  114  
114  119  120  115  
115  120  121  116  
VARIABLES  = "X","Y","Z", "TEMPERATURE1", "DISPLACEMENT_X1", "DISPLACEMENT_Y1", "STRESS_XX", "STRESS_XY", "STRESS_YY", "STRESS_ZZ", "STRAIN_XX", "STRAIN_XY", "STRAIN_YY", "STRAIN_ZZ", "STRAIN_PLS"
ZONE T="5.000000000000e-01s", N=121, E=100, F=FEPOINT, ET=QUADRILATERAL
STRANDID=1, SOLUTIONTIME=5.000000000000e-01
0.000000000000e+00 1.000000000000e+01 0.000000000000e+00 3.080000000000e+02 0.000000000000e+00 0.000000000000e+00 -5.092841853662e+05 -1.892477029700e-06 -2.212295646294e+06 -2.212326554548e+06 8.651455235441e-05 -1.922756662175e-16 1.570139263841e-09 0.000000000000e+00 0.000000000000e+00 
0.000000000000e+00 9.000000000000e+00 0.000000000000e+00 3.080000000000e+02 0.000000000000e+00 -1.413124595726e-09 -5.092878136867e+05 -6.218525397276e-06 -2.212305456333e+06 -2.212330182905e+06 8.651455235627e-05 -6.318021803633e-16 1.256109826980e-09 0.000000000000e+00 0.000000000000e+00 
1.000000000000e+00 9.000000000000e+00 0.000000000000e+00 3.010573028003e+02 5.027937930048e-05 -1.413124873894e-09 -5.092878136823e+05 -5.794249112570e-07 -7.857238399635e+05 -7.857485665311e+05 1.404420624472e-05 -5.886957098371e-17 1.256109636923e-09 0.000000000000e+00 0.000000000000e+00 
1.000000000000e+00 1.000000000000e+01 0.000000000000e+00 3.010573028008e+02 5.027937930059e-05 0.000000000000e+00 -5.092841853962e+05 -6.841363115805e-07 -7.857140300067e+05 -7.857449382819e+05 1.404420624659e-05 -6.950824925658e-17 1.570140379684e-09 0.000000000000e+00 0.000000000000e+00 
2.000000000000e+00 9.000000000000e+00 0.000000000000e+00 2.982118054021e+02 4.947242789104e-05 -1.413123529243e-09 -5.092878136998e+05 6.824528205371e-05 -2.010325937356e+05 -2.010573203202e+05 -1.565810906368e-05 6.933720656657e-15 1.256110499172e-09 0.000000000000e+00 0.000000000000e+00 
2.000000000000e+00 1.000000000000e+01 0.000000000000e+00 2.982118054023e+02 4.947242789308e-05 0.000000000000e+00 -5.092841853239e+05 1.322425188401e-05 -2.010227837971e+05 -2.010536920017e+05 -1.565810906077e-05 1.343583991416e-15 1.570136794069e-09 0.000000000000e+00 0.000000000000e+00 
3.000000000000e+00 9.000000000000e+00 0.000000000000e+00 2.980508665120e+02 3.297435009933e-05 -1.413120909527e-09 -5.092878137113e+05 1.021575649692e-05 -1.679629587761e+05 -1.679876853715e+05 -1.733804651966e-05 1.037920860087e-15 1.256111050031e-09 0.000000000000e+00 0.000000000000e+00 
3.000000000000e+00 1.000000000000e+01 0.000000000000e+00 2.980508665104e+02 3.297435009951e-05 0.000000000000e+00 -5.092841851704e+05 -4.386316866565e-07 -1.679531486145e+05 -1.679840566857e+05 -1.733804652702e-05 -4.456497936430e-17 1.570130014716e-09 0.000000000000e+00 0.000000000000e+00 
4.000000000000e+00 9.000000000000e+00 0.000000000000e+00 2.981630370938e+02 1.622174182225e-05 -1.413122844902e-09 -5.092878136835e+05 -5.888062614166e-05 -1.910117084815e+05 -1.910364350506e+05 -1.616717003455e-05 -5.982271615992e-15 1.256109712939e-09 0.000000000000e+00 0.000000000000e+00 
4.000000000000e+00 1.000000000000e+01 0.000000000000e+00 2.981630370940e+02 1.622174182058e-05 0.000000000000e+00 -5.092841853088e+05 -9.954184324601e-06 -1.910018985471e+05 -1.910328067372e+05 -1.616717003143e-05 -1.011345127379e-15 1.570136059761e-09 0.000000000000e+00 0.000000000000e+00 
5.000000000000e+00 9.000000000000e+00 0.000000000000e+00 2.981525810825e+02 2.349134628939e-15 -1.413124131336e-09 -5.092878137016e+05 -4.206944013628e-06 -1.888632129972e+05 -1.888879395828e+05 -1.627631360523e-05 -4.274255117846e-16 1.256110548569e-09 0.000000000000e+00 0.000000000000e+00 
5.000000000000e+00 1.000000000000e+01 0.000000000000e+00 2.981525810825e+02 2.186506134221e-15 0.000000000000e+00 -5.092841853463e+05 8.118478214861e-07 -1.888534030114e+05 -1.888843112387e+05 -1.627631360466e-05 8.248373866299e-17 1.570137949389e-09 0.000000000000e+00 0.000000000000e+00 
0.000000000000e+00 8.000000000000e+00 0.000000000000e+00 3.080000000000e+02 0.000000000000e+00 -2.512219930515e-09 -5.092914420188e+05 -1.414016753401e-07 -2.212315266360e+06 -2.212333811261e+06 8.651455235753e-05 -1.436641021455e-17 9.420810017928e-10 0.000000000000e+00 0.000000000000e+00 
1.000000000000e+00 8.000000000000e+00 0.000000000000e+00 3.010573028000e+02 5.027937930039e-05 -2.512219851669e-09 -5.092914419943e+05 4.738843348427e-06 -7.857336499352e+05 -7.857521948179e+05 1.404420624344e-05 4.814664842002e-16 9.420800409669e-10 0.000000000000e+00 0.000000000000e+00 
2.000000000000e+00 8.000000000000e+00 0.000000000000e+00 2.982118054016e+02 4.947242788922e-05 -2.512219571344e-09 -5.092914420165e+05 3.946479567446e-06 -2.010424036770e+05 -2.010609485835e+05 -1.565810906640e-05 4.009623240525e-16 9.420812460979e-10 0.000000000000e+00 0.000000000000e+00 
3.000000000000e+00 8.000000000000e+00 0.000000000000e+00 2.980508665130e+02 3.297435009913e-05 -2.512219678867e-09 -5.092914421518e+05 -1.111544018414e-05 -1.679727689065e+05 -1.679913139325e+05 -1.733804651354e-05 -1.129328722708e-15 9.420873201053e-10 0.000000000000e+00 0.000000000000e+00 
4.000000000000e+00 8.000000000000e+00 0.000000000000e+00 2.981630370939e+02 1.622174182402e-05 -2.512220347277e-09 -5.092914420999e+05 -1.067651300113e-05 -1.910215184539e+05 -1.910400634380e+05 -1.616717003602e-05 -1.084733720915e-15 9.420851915113e-10 0.000000000000e+00 0.000000000000e+00 
5.000000000000e+00 8.000000000000e+00 0.000000000000e+00 2.981525810822e+02 2.549089662390e-15 -2.512220553250e-09 -5.092914420338e+05 1.014514904644e-06 -1.888730229486e+05 -1.888915678717e+05 -1.627631360744e-05 1.030747143118e-16 9.420820913551e-10 0.000000000000e+00 0.000000000000e+00 
0.000000000000e+00 7.000000000000e+00 0.000000000000e+00 3.080000000000e+02 0.000000000000e+00 -3.297287770114e-09 -5.092950703947e+05 2.503647946328e-06 -2.212325076336e+06 -2.212337439616e+06 8.651455235646e-05 2.543706313470e-16 6.280546595141e-10 0.000000000000e+00 0.000000000000e+00 
1.000000000000e+00 7.000000000000e+00 0.000000000000e+00 3.010573028003e+02 5.027937930015e-05 -3.297287632176e-09 -5.092950704104e+05 1.746964387029e-06 -7.857434599443e+05 -7.857558232398e+05 1.404420624373e-05 1.774915817222e-16 6.280554102263e-10 0.000000000000e+00 0.000000000000e+00 
2.000000000000e+00 7.000000000000e+00 0.000000000000e+00 2.982118054022e+02 4.947242789031e-05 -3.297288231824e-09 -5.092950704249e+05 -3.326320386430e-05 -2.010522137450e+05 -2.010645770527e+05 -1.565810906331e-05 -3.379541512612e-15 6.280560279367e-10 0.000000000000e+00 0.000000000000e+00 
3.000000000000e+00 7.000000000000e+00 0.000000000000e+00 2.980508665120e+02 3.297435010021e-05 -3.297289901143e-09 -5.092950703686e+05 -2.382888252016e-05 -1.679825788305e+05 -1.679949420849e+05 -1.733804651682e-05 -2.421014464048e-15 6.280533225951e-10 0.000000000000e+00 0.000000000000e+00 
4.000000000000e+00 7.000000000000e+00 0.000000000000e+00 2.981630370935e+02 1.622174182353e-05 -3.297289873374e-09 -5.092950703814e+05 1.892295491293e-05 -1.910313284397e+05 -1.910436917068e+05 -1.616717003667e-05 1.922572219154e-15 6.280539683162e-10 0.000000000000e+00 0.000000000000e+00 
5.000000000000e+00 7.000000000000e+00 0.000000000000e+00 2.981525810824e+02 2.376974621391e-15 -3.297289216800e-09 -5.092950704042e+05 4.364073950324e-06 -1.888828329904e+05 -1.888951962790e+05 -1.627631360556e-05 4.433899133529e-16 6.280550607721e-10 0.000000000000e+00 0.000000000000e+00 
0.000000000000e+00 6.000000000000e+00 0.000000000000e+00 3.080000000000e+02 0.000000000000e+00 -3.768328876290e-09 -5.092986987585e+05 9.220129145292e-07 -2.212334886330e+06 -2.212341067973e+06 8.651455235610e-05 9.367651211617e-17 3.140274725526e-10 0.000000000000e+00 0.000000000000e+00 
1.000000000000e+00 6.000000000000e+00 0.000000000000e+00 3.010573028003e+02 5.027937930038e-05 -3.768328908990e-09 -5.092986987539e+05 -3.890081388881e-06 -7.857532699636e+05 -7.857594516017e+05 1.404420624467e-05 -3.952322691103e-16 3.140272170284e-10 0.000000000000e+00 0.000000000000e+00 
2.000000000000e+00 6.000000000000e+00 0.000000000000e+00 2.982118054020e+02 4.947242789134e-05 -3.768329418298e-09 -5.092986987401e+05 -1.699488810824e-05 -2.010620237551e+05 -2.010682053797e+05 -1.565810906270e-05 -1.726680631797e-15 3.140265298526e-10 0.000000000000e+00 0.000000000000e+00 
3.000000000000e+00 6.000000000000e+00 0.000000000000e+00 2.980508665120e+02 3.297435010081e-05 -3.768330161952e-09 -5.092986987476e+05 -6.715845962012e-06 -1.679923888006e+05 -1.679985704336e+05 -1.733804651835e-05 -6.823299497404e-16 3.140269570191e-10 0.000000000000e+00 0.000000000000e+00 
4.000000000000e+00 6.000000000000e+00 0.000000000000e+00 2.981630370935e+02 1.622174182316e-05 -3.768330074511e-09 -5.092986987346e+05 5.685717326394e-06 -1.910411384323e+05 -1.910473200527e+05 -1.616717003704e-05 5.776688803616e-16 3.140263162013e-10 0.000000000000e+00 0.000000000000e+00 
5.000000000000e+00 6.000000000000e+00 0.000000000000e+00 2.981525810824e+02 2.344465836746e-15 -3.768330018272e-09 -5.092986987436e+05 -3.548992663866e-06 -1.888926430092e+05 -1.888988246371e+05 -1.627631360461e-05 -3.605776546487e-16 3.140266967076e-10 0.000000000000e+00 0.000000000000e+00 
0.000000000000e+00 5.000000000000e+00 0.000000000000e+00 3.080000000000e+02 0.000000000000e+00 -3.925342697572e-09 -5.093023271191e+05 5.115255113638e-07 -2.212344696325e+06 -2.212344696329e+06 8.651455235587e-05 5.197099195457e-17 2.098509996517e-16 0.000000000000e+00 0.000000000000e+00 
1.000000000000e+00 5.000000000000e+00 0.000000000000e+00 3.010573028004e+02 5.027937930044e-05 -3.925342687335e-09 -5.093023271233e+05 -3.359991209523e-07 -7.857630799698e+05 -7.857630799772e+05 1.404420624498e-05 -3.413751068875e-17 3.785581676512e-16 0.000000000000e+00 0.000000000000e+00 
2.000000000000e+00 5.000000000000e+00 0.000000000000e+00 2.982118054022e+02 4.947242789194e-05 -3.925342838090e-09 -5.093023271214e+05 -5.412389164031e-06 -2.010718337728e+05 -2.010718337780e+05 -1.565810906185e-05 -5.498987390655e-16 2.643108093836e-16 0.000000000000e+00 0.000000000000e+00 
3.000000000000e+00 5.000000000000e+00 0.000000000000e+00 2.980508665118e+02 3.297435010107e-05 -3.925343100105e-09 -5.093023270915e+05 -2.913608961880e-06 -1.680021987674e+05 -1.680021987457e+05 -1.733804651996e-05 -2.960226705270e-16 -1.098439824000e-15 0.000000000000e+00 0.000000000000e+00 
4.000000000000e+00 5.000000000000e+00 0.000000000000e+00 2.981630370936e+02 1.622174182296e-05 -3.925343097743e-09 -5.093023271110e+05 2.038555102473e-06 -1.910509484474e+05 -1.910509484425e+05 -1.616717003636e-05 2.071171984112e-16 -2.478503716564e-16 0.000000000000e+00 0.000000000000e+00 
5.000000000000e+00 5.000000000000e+00 0.000000000000e+00 2.981525810825e+02 2.599387449933e-15 -3.925343142576e-09 -5.093023271054e+05 -5.284482305494e-06 -1.889024530156e+05 -1.889024530058e+05 -1.627631360426e-05 -5.369034022382e-16 -4.976404373837e-16 0.000000000000e+00 0.000000000000e+00 
0.000000000000e+00 4.000000000000e+00 0.000000000000e+00 3.080000000000e+02 0.000000000000e+00 -3.768329155620e-09 -5.093059554756e+05 -7.033756259488e-08 -2.212354506325e+06 -2.212348324685e+06 8.651455235586e-05 -7.146296359639e-18 -3.140273040219e-10 0.000000000000e+00 0.000000000000e+00 
1.000000000000e+00 4.000000000000e+00 0.000000000000e+00 3.010573028004e+02 5.027937930050e-05 -3.768329166312e-09 -5.093059554735e+05 -6.160174627765e-07 -7.857728899728e+05 -7.857667083309e+05 1.404420624516e-05 -6.258737421809e-17 -3.140274073407e-10 0.000000000000e+00 0.000000000000e+00 
2.000000000000e+00 4.000000000000e+00 0.000000000000e+00 2.982118054022e+02 4.947242789192e-05 -3.768329149905e-09 -5.093059554693e+05 2.716381253361e-06 -2.010816437620e+05 -2.010754621163e+05 -1.565810906233e-05 2.759843353415e-16 -3.140276021590e-10 0.000000000000e+00 0.000000000000e+00 
3.000000000000e+00 4.000000000000e+00 0.000000000000e+00 2.980508665120e+02 3.297435010112e-05 -3.768329024511e-09 -5.093059554793e+05 4.430583296667e-07 -1.680120087840e+05 -1.680058271478e+05 -1.733804651924e-05 4.501472629414e-17 -3.140271202853e-10 0.000000000000e+00 0.000000000000e+00 
4.000000000000e+00 4.000000000000e+00 0.000000000000e+00 2.981630370936e+02 1.622174182303e-05 -3.768329131435e-09 -5.093059554675e+05 -2.646036303622e-06 -1.910607584341e+05 -1.910545767870e+05 -1.616717003697e-05 -2.688372884480e-16 -3.140276718754e-10 0.000000000000e+00 0.000000000000e+00 
5.000000000000e+00 4.000000000000e+00 0.000000000000e+00 2.981525810826e+02 2.806894615914e-15 -3.768329254711e-09 -5.093059554769e+05 -4.273902036307e-06 -1.889122630313e+05 -1.889060813924e+05 -1.627631360349e-05 -4.342284468888e-16 -3.140272547675e-10 0.000000000000e+00 0.000000000000e+00 
0.000000000000e+00 3.000000000000e+00 0.000000000000e+00 3.080000000000e+02 0.000000000000e+00 -3.297288095006e-09 -5.093095838319e+05 -4.951370216243e-08 -2.212364316325e+06 -2.212351953042e+06 8.651455235585e-05 -5.030592139703e-18 -6.280547938797e-10 0.000000000000e+00 0.000000000000e+00 
1.000000000000e+00 3.000000000000e+00 0.000000000000e+00 3.010573028004e+02 5.027937930045e-05 -3.297288058927e-09 -5.093095838318e+05 1.783290703340e-06 -7.857826999706e+05 -7.857703366870e+05 1.404420624504e-05 1.811823354594e-16 -6.280548054782e-10 0.000000000000e+00 0.000000000000e+00 
2.000000000000e+00 3.000000000000e+00 0.000000000000e+00 2.982118054022e+02 4.947242789183e-05 -3.297287935928e-09 -5.093095838306e+05 2.689423166576e-06 -2.010914537642e+05 -2.010790904792e+05 -1.565810906225e-05 2.732453937241e-16 -6.280548742651e-10 0.000000000000e+00 0.000000000000e+00 
3.000000000000e+00 3.000000000000e+00 0.000000000000e+00 2.980508665119e+02 3.297435010107e-05 -3.297287803574e-09 -5.093095838223e+05 1.992335114960e-06 -1.680218187828e+05 -1.680094554901e+05 -1.733804651928e-05 2.024212476800e-16 -6.280552696472e-10 0.000000000000e+00 0.000000000000e+00 
4.000000000000e+00 3.000000000000e+00 0.000000000000e+00 2.981630370936e+02 1.622174182312e-05 -3.297287757614e-09 -5.093095838257e+05 -1.088189066531e-06 -1.910705684405e+05 -1.910582051515e+05 -1.616717003665e-05 -1.105600091595e-16 -6.280550832666e-10 0.000000000000e+00 0.000000000000e+00 
5.000000000000e+00 3.000000000000e+00 0.000000000000e+00 2.981525810826e+02 3.082333710427e-15 -3.297287941381e-09 -5.093095838202e+05 -5.608769756163e-06 -1.889220730317e+05 -1.889097097368e+05 -1.627631360344e-05 -5.698510072261e-16 -6.280553807775e-10 0.000000000000e+00 0.000000000000e+00 
0.000000000000e+00 2.000000000000e+00 0.000000000000e+00 3.080000000000e+02 0.000000000000e+00 -2.512219574727e-09 -5.093132121886e+05 -2.570676165211e-07 -2.212374126324e+06 -2.212355581398e+06 8.651455235582e-05 -2.611806983854e-17 -9.420822577846e-10 0.000000000000e+00 0.000000000000e+00 
1.000000000000e+00 2.000000000000e+00 0.000000000000e+00 3.010573028004e+02 5.027937930037e-05 -2.512219560941e-09 -5.093132121906e+05 1.095533950230e-06 -7.857925099676e+05 -7.857739650431e+05 1.404420624490e-05 1.113062493433e-16 -9.420821641734e-10 0.000000000000e+00 0.000000000000e+00 
2.000000000000e+00 2.000000000000e+00 0.000000000000e+00 2.982118054022e+02 4.947242789158e-05 -2.512219377971e-09 -5.093132121909e+05 7.464846901990e-06 -2.011012637602e+05 -2.010827188349e+05 -1.565810906248e-05 7.584284452422e-16 -9.420822030286e-10 0.000000000000e+00 0.000000000000e+00 
3.000000000000e+00 2.000000000000e+00 0.000000000000e+00 2.980508665120e+02 3.297435010077e-05 -2.512218863710e-09 -5.093132121819e+05 1.361505630307e-05 -1.680316287879e+05 -1.680130838544e+05 -1.733804651904e-05 1.383289720392e-15 -9.420826210957e-10 0.000000000000e+00 0.000000000000e+00 
4.000000000000e+00 2.000000000000e+00 0.000000000000e+00 2.981630370935e+02 1.622174182317e-05 -2.512218460242e-09 -5.093132121604e+05 -1.324320594876e-06 -1.910803784472e+05 -1.910618334942e+05 -1.616717003625e-05 -1.345509724394e-16 -9.420836137546e-10 0.000000000000e+00 0.000000000000e+00 
5.000000000000e+00 2.000000000000e+00 0.000000000000e+00 2.981525810826e+02 3.479447429001e-15 -2.512218937065e-09 -5.093132121824e+05 -1.366023689092e-05 -1.889318830371e+05 -1.889133381040e+05 -1.627631360318e-05 -1.387880068117e-15 -9.420826063975e-10 0.000000000000e+00 0.000000000000e+00 
0.000000000000e+00 1.000000000000e+00 0.000000000000e+00 3.080000000000e+02 0.000000000000e+00 -1.413123527308e-09 -5.093168405430e+05 5.459314022245e-07 -2.212383936326e+06 -2.212359209754e+06 8.651455235591e-05 5.546663046601e-17 -1.256109856936e-09 0.000000000000e+00 0.000000000000e+00 
1.000000000000e+00 1.000000000000e+00 0.000000000000e+00 3.010573028004e+02 5.027937930040e-05 -1.413123578041e-09 -5.093168405427e+05 -4.657264316380e-06 -7.858023199665e+05 -7.857775933946e+05 1.404420624488e-05 -4.731780545442e-16 -1.256109851862e-09 0.000000000000e+00 0.000000000000e+00 
2.000000000000e+00 1.000000000000e+00 0.000000000000e+00 2.982118054022e+02 4.947242789122e-05 -1.413123678170e-09 -5.093168405582e+05 5.169417907228e-06 -2.011110737446e+05 -2.010863471875e+05 -1.565810906323e-05 5.252128593744e-16 -1.256109100467e-09 0.000000000000e+00 0.000000000000e+00 
3.000000000000e+00 1.000000000000e+00 0.000000000000e+00 2.980508665120e+02 3.297435009995e-05 -1.413123034665e-09 -5.093168405588e+05 1.806306388430e-05 -1.680414387809e+05 -1.680167122249e+05 -1.733804651937e-05 1.835207290644e-15 -1.256109047026e-09 0.000000000000e+00 0.000000000000e+00 
4.000000000000e+00 1.000000000000e+00 0.000000000000e+00 2.981630370940e+02 1.622174182318e-05 -1.413122511784e-09 -5.093168405763e+05 2.148372601207e-06 -1.910901884931e+05 -1.910654619522e+05 -1.616717003410e-05 2.182746562826e-16 -1.256108277222e-09 0.000000000000e+00 0.000000000000e+00 
5.000000000000e+00 1.000000000000e+00 0.000000000000e+00 2.981525810826e+02 4.185198042914e-15 -1.413122811934e-09 -5.093168405458e+05 -1.127646056927e-05 -1.889416930236e+05 -1.889169664549e+05 -1.627631360382e-05 -1.145688393837e-15 -1.256109685867e-09 0.000000000000e+00 0.000000000000e+00 
0.000000000000e+00 0.000000000000e+00 0.000000000000e+00 3.080000000000e+02 0.000000000000e+00 0.000000000000e+00 -5.093204689034e+05 5.210659187084e-07 -2.212393746322e+06 -2.212362838110e+06 8.651455235571e-05 5.294029734077e-17 -1.570137179977e-09 0.000000000000e+00 0.000000000000e+00 
1.000000000000e+00 0.000000000000e+00 0.000000000000e+00 3.010573028005e+02 5.027937930059e-05 0.000000000000e+00 -5.093204689014e+05 -1.992011989829e-06 -7.858121299807e+05 -7.857812217663e+05 1.404420624554e-05 -2.023884181667e-16 -1.570137289381e-09 0.000000000000e+00 0.000000000000e+00 
2.000000000000e+00 0.000000000000e+00 0.000000000000e+00 2.982118054019e+02 4.947242789111e-05 0.000000000000e+00 -5.093204688768e+05 -3.039984465003e-07 -2.011208837151e+05 -2.010899754795e+05 -1.565810906458e-05 -3.088624216443e-17 -1.570138368968e-09 0.000000000000e+00 0.000000000000e+00 
3.000000000000e+00 0.000000000000e+00 0.000000000000e+00 2.980508665120e+02 3.297435009952e-05 0.000000000000e+00 -5.093204689071e+05 1.097051324102e-06 -1.680512487947e+05 -1.680203405860e+05 -1.733804651871e-05 1.114604145288e-16 -1.570137001230e-09 0.000000000000e+00 0.000000000000e+00 
4.000000000000e+00 0.000000000000e+00 0.000000000000e+00 2.981630370939e+02 1.622174182306e-05 0.000000000000e+00 -5.093204689146e+05 1.151044244890e-06 -1.910999984924e+05 -1.910690902907e+05 -1.616717003409e-05 1.169460952808e-16 -1.570136649759e-09 0.000000000000e+00 0.000000000000e+00 
5.000000000000e+00 0.000000000000e+00 0.000000000000e+00 2.981525810828e+02 4.370364325708e-15 0.000000000000e+00 -5.093204689296e+05 1.137130838879e-06 -1.889515030372e+05 -1.889205948503e+05 -1.627631360323e-05 1.155324932301e-16 -1.570135893296e-09 0.000000000000e+00 0.000000000000e+00 
6.000000000000e+00 9.000000000000e+00 0.000000000000e+00 2.981630370939e+02 -1.622174181703e-05 -1.413124020698e-09 -5.092878136867e+05 -4.135060137417e-07 -1.910117085020e+05 -1.910364350745e+05 -1.616717003350e-05 -4.201221099616e-17 1.256109882990e-09 0.000000000000e+00 0.000000000000e+00 
6.000000000000e+00 1.000000000000e+01 0.000000000000e+00 2.981630370939e+02 -1.622174181704e-05 0.000000000000e+00 -5.092841853455e+05 -1.114135014098e-07 -1.910018984941e+05 -1.910328067248e+05 -1.616717003393e-05 -1.131961174324e-17 1.570138116424e-09 0.000000000000e+00 0.000000000000e+00 
7.000000000000e+00 9.000000000000e+00 0.000000000000e+00 2.980508665120e+02 -3.297435009365e-05 -1.413124203962e-09 -5.092878137064e+05 5.874913386700e-06 -1.679629587724e+05 -1.679876853634e+05 -1.733804651983e-05 5.968912000888e-16 1.256110821599e-09 0.000000000000e+00 0.000000000000e+00 
7.000000000000e+00 1.000000000000e+01 0.000000000000e+00 2.980508665120e+02 -3.297435009342e-05 0.000000000000e+00 -5.092841853366e+05 3.570677305444e-06 -1.679531487962e+05 -1.679840570173e+05 -1.733804651862e-05 3.627808142331e-16 1.570137631371e-09 0.000000000000e+00 0.000000000000e+00 
8.000000000000e+00 9.000000000000e+00 0.000000000000e+00 2.982118054017e+02 -4.947242788758e-05 -1.413124168827e-09 -5.092878137078e+05 -2.673526433298e-05 -2.010325936523e+05 -2.010573202445e+05 -1.565810906794e-05 -2.716302856231e-15 1.256110882242e-09 0.000000000000e+00 0.000000000000e+00 
8.000000000000e+00 1.000000000000e+01 0.000000000000e+00 2.982118054012e+02 -4.947242788844e-05 0.000000000000e+00 -5.092841853197e+05 -5.649072197607e-06 -2.010227835678e+05 -2.010536917792e+05 -1.565810907186e-05 -5.739457352769e-16 1.570137139162e-09 0.000000000000e+00 0.000000000000e+00 
9.000000000000e+00 9.000000000000e+00 0.000000000000e+00 3.010573028003e+02 -5.027937929965e-05 -1.413126013732e-09 -5.092878136907e+05 -2.218817513733e-05 -7.857238399447e+05 -7.857485665206e+05 1.404420624376e-05 -2.254318593953e-15 1.256110056267e-09 0.000000000000e+00 0.000000000000e+00 
9.000000000000e+00 1.000000000000e+01 0.000000000000e+00 3.010573028012e+02 -5.027937930032e-05 0.000000000000e+00 -5.092841854353e+05 -3.301774126572e-06 -7.857140300403e+05 -7.857449383532e+05 1.404420624823e-05 -3.354602512598e-16 1.570142293348e-09 0.000000000000e+00 0.000000000000e+00 
1.000000000000e+01 9.000000000000e+00 0.000000000000e+00 3.080000000000e+02 0.000000000000e+00 -1.413125850402e-09 -5.092878137009e+05 1.119732246001e-05 -2.212305456319e+06 -2.212330182905e+06 8.651455235555e-05 1.137647961937e-15 1.256110531630e-09 0.000000000000e+00 0.000000000000e+00 
1.000000000000e+01 1.000000000000e+01 0.000000000000e+00 3.080000000000e+02 0.000000000000e+00 0.000000000000e+00 -5.092841854031e+05 3.716456595246e-06 -2.212295646258e+06 -2.212326554548e+06 8.651455235255e-05 3.775919900770e-16 1.570141118790e-09 0.000000000000e+00 0.000000000000e+00 
6.000000000000e+00 8.000000000000e+00 0.000000000000e+00 2.981630370942e+02 -1.622174181700e-05 -2.512220531046e-09 -5.092914420609e+05 -1.326764085853e-08 -1.910215185416e+05 -1.910400634857e+05 -1.616717003162e-05 -1.347992311226e-18 9.420831619207e-10 0.000000000000e+00 0.000000000000e+00 
7.000000000000e+00 8.000000000000e+00 0.000000000000e+00 2.980508665117e+02 -3.297435009357e-05 -2.512220662480e-09 -5.092914420345e+05 -5.398223564621e-06 -1.679727687356e+05 -1.679913136568e+05 -1.733804652159e-05 -5.484595141655e-16 9.420819944540e-10 0.000000000000e+00 0.000000000000e+00 
8.000000000000e+00 8.000000000000e+00 0.000000000000e+00 2.982118054020e+02 -4.947242788673e-05 -2.512221047627e-09 -5.092914420659e+05 -1.032286872132e-05 -2.010424037226e+05 -2.010609486687e+05 -1.565810906458e-05 -1.048803462086e-15 9.420832629984e-10 0.000000000000e+00 0.000000000000e+00 
9.000000000000e+00 8.000000000000e+00 0.000000000000e+00 3.010573027997e+02 -5.027937929893e-05 -2.512221499786e-09 -5.092914420039e+05 -4.948300851113e-06 -7.857336498711e+05 -7.857521947639e+05 1.404420624021e-05 -5.027473664731e-16 9.420805512722e-10 0.000000000000e+00 0.000000000000e+00 
1.000000000000e+01 8.000000000000e+00 0.000000000000e+00 3.080000000000e+02 0.000000000000e+00 -2.512221563696e-09 -5.092914420181e+05 7.109796322019e-07 -2.212315266359e+06 -2.212333811261e+06 8.651455235754e-05 7.223553063172e-17 9.420810231106e-10 0.000000000000e+00 0.000000000000e+00 
6.000000000000e+00 7.000000000000e+00 0.000000000000e+00 2.981630370939e+02 -1.622174181694e-05 -3.297289443531e-09 -5.092950703967e+05 -3.787641458784e-06 -1.910313285100e+05 -1.910436917919e+05 -1.616717003312e-05 -3.848243722125e-16 6.280547206642e-10 0.000000000000e+00 0.000000000000e+00 
7.000000000000e+00 7.000000000000e+00 0.000000000000e+00 2.980508665120e+02 -3.297435009328e-05 -3.297289478492e-09 -5.092950704166e+05 -5.597416295432e-06 -1.679825787800e+05 -1.679949420799e+05 -1.733804651950e-05 -5.686974956159e-16 6.280556342097e-10 0.000000000000e+00 0.000000000000e+00 
8.000000000000e+00 7.000000000000e+00 0.000000000000e+00 2.982118054017e+02 -4.947242788653e-05 -3.297289855014e-09 -5.092950703899e+05 6.440433332728e-07 -2.010522136696e+05 -2.010645769454e+05 -1.565810906698e-05 6.543480266051e-17 6.280544098547e-10 0.000000000000e+00 0.000000000000e+00 
9.000000000000e+00 7.000000000000e+00 0.000000000000e+00 3.010573028001e+02 -5.027937929905e-05 -3.297289487364e-09 -5.092950704104e+05 6.052587454817e-06 -7.857434599088e+05 -7.857558232035e+05 1.404420624189e-05 6.149428854094e-16 6.280553748395e-10 0.000000000000e+00 0.000000000000e+00 
1.000000000000e+01 7.000000000000e+00 0.000000000000e+00 3.080000000000e+02 0.000000000000e+00 -3.297289540611e-09 -5.092950703997e+05 -2.959495295931e-06 -2.212325076332e+06 -2.212337439617e+06 8.651455235623e-05 -3.006847220666e-16 6.280548748295e-10 0.000000000000e+00 0.000000000000e+00 
6.000000000000e+00 6.000000000000e+00 0.000000000000e+00 2.981630370939e+02 -1.622174181662e-05 -3.768330332003e-09 -5.092986987487e+05 -8.305837283137e-06 -1.910411385073e+05 -1.910473201408e+05 -1.616717003328e-05 -8.438730679667e-16 3.140269819220e-10 0.000000000000e+00 0.000000000000e+00 
7.000000000000e+00 6.000000000000e+00 0.000000000000e+00 2.980508665118e+02 -3.297435009307e-05 -3.768330658851e-09 -5.092986987465e+05 -4.004828650147e-06 -1.679923887768e+05 -1.679985704078e+05 -1.733804651961e-05 -4.068905908550e-16 3.140268549606e-10 0.000000000000e+00 0.000000000000e+00 
8.000000000000e+00 6.000000000000e+00 0.000000000000e+00 2.982118054017e+02 -4.947242788656e-05 -3.768330743432e-09 -5.092986987525e+05 1.661409375799e-07 -2.010620236622e+05 -2.010682053000e+05 -1.565810906739e-05 1.687991925812e-17 3.140271976628e-10 0.000000000000e+00 0.000000000000e+00 
9.000000000000e+00 6.000000000000e+00 0.000000000000e+00 3.010573028001e+02 -5.027937929917e-05 -3.768330724907e-09 -5.092986987541e+05 8.023498375793e-07 -7.857532699142e+05 -7.857594515525e+05 1.404420624216e-05 8.151874349806e-17 3.140272290177e-10 0.000000000000e+00 0.000000000000e+00 
1.000000000000e+01 6.000000000000e+00 0.000000000000e+00 3.080000000000e+02 0.000000000000e+00 -3.768330692647e-09 -5.092986987565e+05 3.633350366216e-07 -2.212334886332e+06 -2.212341067973e+06 8.651455235620e-05 3.691483972075e-17 3.140273752127e-10 0.000000000000e+00 0.000000000000e+00 
6.000000000000e+00 5.000000000000e+00 0.000000000000e+00 2.981630370939e+02 -1.622174181620e-05 -3.925343575070e-09 -5.093023271062e+05 -1.006373750175e-05 -1.910509485052e+05 -1.910509484962e+05 -1.616717003339e-05 -1.022475730177e-15 -4.530599398017e-16 0.000000000000e+00 0.000000000000e+00 
7.000000000000e+00 5.000000000000e+00 0.000000000000e+00 2.980508665119e+02 -3.297435009281e-05 -3.925343969400e-09 -5.093023271094e+05 -6.124413096363e-06 -1.680021987722e+05 -1.680021987664e+05 -1.733804651982e-05 -6.222403705905e-16 -2.920474116050e-16 0.000000000000e+00 0.000000000000e+00 
8.000000000000e+00 5.000000000000e+00 0.000000000000e+00 2.982118054016e+02 -4.947242788647e-05 -3.925344188400e-09 -5.093023271103e+05 -2.711587779940e-06 -2.010718336605e+05 -2.010718336556e+05 -1.565810906750e-05 -2.754973184419e-16 -2.493226492785e-16 0.000000000000e+00 0.000000000000e+00 
9.000000000000e+00 5.000000000000e+00 0.000000000000e+00 3.010573028001e+02 -5.027937929917e-05 -3.925344260746e-09 -5.093023271116e+05 -6.464453079154e-07 -7.857630799127e+05 -7.857630799090e+05 1.404420624211e-05 -6.567884328421e-17 -1.901527455437e-16 0.000000000000e+00 0.000000000000e+00 
1.000000000000e+01 5.000000000000e+00 0.000000000000e+00 3.080000000000e+02 0.000000000000e+00 -3.925344274364e-09 -5.093023271119e+05 -2.463165978949e-08 -2.212344696333e+06 -2.212344696329e+06 8.651455235624e-05 -2.502576634613e-18 -1.708699879733e-16 0.000000000000e+00 0.000000000000e+00 
6.000000000000e+00 4.000000000000e+00 0.000000000000e+00 2.981630370939e+02 -1.622174181572e-05 -3.768329618012e-09 -5.093059554718e+05 -8.862681548964e-06 -1.910607585024e+05 -1.910545768591e+05 -1.616717003352e-05 -9.004484453747e-16 -3.140274782579e-10 0.000000000000e+00 0.000000000000e+00 
7.000000000000e+00 4.000000000000e+00 0.000000000000e+00 2.980508665119e+02 -3.297435009248e-05 -3.768330020008e-09 -5.093059554695e+05 -6.603260040496e-06 -1.680120087680e+05 -1.680058271223e+05 -1.733804652004e-05 -6.708912201144e-16 -3.140275982165e-10 0.000000000000e+00 0.000000000000e+00 
8.000000000000e+00 4.000000000000e+00 0.000000000000e+00 2.982118054016e+02 -4.947242788632e-05 -3.768330259054e-09 -5.093059554691e+05 -3.140093784757e-06 -2.010816436580e+05 -2.010754620118e+05 -1.565810906763e-05 -3.190335285313e-16 -3.140276271254e-10 0.000000000000e+00 0.000000000000e+00 
9.000000000000e+00 4.000000000000e+00 0.000000000000e+00 3.010573028001e+02 -5.027937929913e-05 -3.768330356201e-09 -5.093059554694e+05 -9.217346350339e-07 -7.857728899111e+05 -7.857667082653e+05 1.404420624203e-05 -9.364823891944e-17 -3.140276079700e-10 0.000000000000e+00 0.000000000000e+00 
1.000000000000e+01 4.000000000000e+00 0.000000000000e+00 3.080000000000e+02 0.000000000000e+00 -3.768330367924e-09 -5.093059554686e+05 1.160484259637e-07 -2.212354506332e+06 -2.212348324685e+06 8.651455235621e-05 1.179052007791e-17 -3.140276448410e-10 0.000000000000e+00 0.000000000000e+00 
6.000000000000e+00 3.000000000000e+00 0.000000000000e+00 2.981630370939e+02 -1.622174181533e-05 -3.297288304421e-09 -5.093095838249e+05 -8.171446033989e-06 -1.910705685053e+05 -1.910582052150e+05 -1.616717003338e-05 -8.302189170533e-16 -6.280551490748e-10 0.000000000000e+00 0.000000000000e+00 
7.000000000000e+00 3.000000000000e+00 0.000000000000e+00 2.980508665118e+02 -3.297435009213e-05 -3.297288732457e-09 -5.093095838280e+05 -8.667340656606e-06 -1.680218187646e+05 -1.680094554773e+05 -1.733804652022e-05 -8.806018107112e-16 -6.280549926436e-10 0.000000000000e+00 0.000000000000e+00 
8.000000000000e+00 3.000000000000e+00 0.000000000000e+00 2.982118054017e+02 -4.947242788618e-05 -3.297289035282e-09 -5.093095838325e+05 -2.289685286170e-06 -2.010914536541e+05 -2.010790903709e+05 -1.565810906785e-05 -2.326320250749e-16 -6.280547885689e-10 0.000000000000e+00 0.000000000000e+00 
9.000000000000e+00 3.000000000000e+00 0.000000000000e+00 3.010573028001e+02 -5.027937929913e-05 -3.297288991715e-09 -5.093095838250e+05 2.303569893818e-06 -7.857826999092e+05 -7.857703366193e+05 1.404420624195e-05 2.340427012119e-16 -6.280551244137e-10 0.000000000000e+00 0.000000000000e+00 
1.000000000000e+01 3.000000000000e+00 0.000000000000e+00 3.080000000000e+02 0.000000000000e+00 -3.297288947724e-09 -5.093095838232e+05 5.418384093628e-08 -2.212364316333e+06 -2.212351953041e+06 8.651455235629e-05 5.505078239126e-18 -6.280552216866e-10 0.000000000000e+00 0.000000000000e+00 
6.000000000000e+00 2.000000000000e+00 0.000000000000e+00 2.981630370939e+02 -1.622174181485e-05 -2.512219483810e-09 -5.093132121849e+05 -1.048936987856e-05 -1.910803785050e+05 -1.910618335745e+05 -1.616717003341e-05 -1.065719979662e-15 -9.420824712589e-10 0.000000000000e+00 0.000000000000e+00 
7.000000000000e+00 2.000000000000e+00 0.000000000000e+00 2.980508665118e+02 -3.297435009168e-05 -2.512219978812e-09 -5.093132121848e+05 -8.698350242187e-06 -1.680316287641e+05 -1.680130838333e+05 -1.733804652025e-05 -8.837523846062e-16 -9.420824847039e-10 0.000000000000e+00 0.000000000000e+00 
8.000000000000e+00 2.000000000000e+00 0.000000000000e+00 2.982118054015e+02 -4.947242788614e-05 -2.512220190977e-09 -5.093132121760e+05 1.905409806510e-06 -2.011012636379e+05 -2.010827186989e+05 -1.565810906864e-05 1.935896363414e-16 -9.420829018052e-10 0.000000000000e+00 0.000000000000e+00 
9.000000000000e+00 2.000000000000e+00 0.000000000000e+00 3.010573028001e+02 -5.027937929929e-05 -2.512219974489e-09 -5.093132121751e+05 3.568555572889e-06 -7.857925099157e+05 -7.857739649761e+05 1.404420624229e-05 3.625652462056e-16 -9.420829329624e-10 0.000000000000e+00 0.000000000000e+00 
1.000000000000e+01 2.000000000000e+00 0.000000000000e+00 3.080000000000e+02 0.000000000000e+00 -2.512219952418e-09 -5.093132121793e+05 -9.890402077156e-07 -2.212374126334e+06 -2.212355581398e+06 8.651455235630e-05 -1.004864851039e-16 -9.420827573359e-10 0.000000000000e+00 0.000000000000e+00 
6.000000000000e+00 1.000000000000e+00 0.000000000000e+00 2.981630370939e+02 -1.622174181432e-05 -1.413123337216e-09 -5.093168405435e+05 -1.147805267455e-05 -1.910901885073e+05 -1.910654619359e+05 -1.616717003326e-05 -1.166170151734e-15 -1.256109827204e-09 0.000000000000e+00 0.000000000000e+00 
7.000000000000e+00 1.000000000000e+00 0.000000000000e+00 2.980508665118e+02 -3.297435009131e-05 -1.413123824741e-09 -5.093168405438e+05 -8.531741675064e-06 -1.680414387545e+05 -1.680167121834e+05 -1.733804652070e-05 -8.668249541865e-16 -1.256109809151e-09 0.000000000000e+00 0.000000000000e+00 
8.000000000000e+00 1.000000000000e+00 0.000000000000e+00 2.982118054016e+02 -4.947242788628e-05 -1.413123977221e-09 -5.093168405502e+05 4.028532566692e-06 -2.011110736256e+05 -2.010863470607e+05 -1.565810906927e-05 4.092989087759e-16 -1.256109499201e-09 0.000000000000e+00 0.000000000000e+00 
9.000000000000e+00 1.000000000000e+00 0.000000000000e+00 3.010573028002e+02 -5.027937929945e-05 -1.413123665487e-09 -5.093168405464e+05 5.066566121837e-06 -7.858023199293e+05 -7.857775933603e+05 1.404420624294e-05 5.147631179787e-16 -1.256109706093e-09 0.000000000000e+00 0.000000000000e+00 
1.000000000000e+01 1.000000000000e+00 0.000000000000e+00 3.080000000000e+02 0.000000000000e+00 -1.413123628886e-09 -5.093168405421e+05 -1.190444875230e-06 -2.212383936327e+06 -2.212359209754e+06 8.651455235595e-05 -1.209491993234e-16 -1.256109898658e-09 0.000000000000e+00 0.000000000000e+00 
6.000000000000e+00 0.000000000000e+00 0.000000000000e+00 2.981630370940e+02 -1.622174181395e-05 0.000000000000e+00 -5.093204689095e+05 -1.749459047465e-06 -1.910999985055e+05 -1.910690902997e+05 -1.616717003338e-05 -1.777450392224e-16 -1.570136853709e-09 0.000000000000e+00 0.000000000000e+00 
7.000000000000e+00 0.000000000000e+00 0.000000000000e+00 2.980508665118e+02 -3.297435009102e-05 0.000000000000e+00 -5.093204688882e+05 -1.691558505337e-06 -1.680512487526e+05 -1.680203405264e+05 -1.733804652078e-05 -1.718623441422e-16 -1.570137888292e-09 0.000000000000e+00 0.000000000000e+00 
8.000000000000e+00 0.000000000000e+00 0.000000000000e+00 2.982118054013e+02 -4.947242788637e-05 0.000000000000e+00 -5.093204688749e+05 4.025125717765e-07 -2.011208836088e+05 -2.010899753704e+05 -1.565810907003e-05 4.089527729249e-17 -1.570138512632e-09 0.000000000000e+00 0.000000000000e+00 
9.000000000000e+00 0.000000000000e+00 0.000000000000e+00 3.010573028002e+02 -5.027937929964e-05 0.000000000000e+00 -5.093204688957e+05 1.499639562411e-06 -7.858121299403e+05 -7.857812217200e+05 1.404420624347e-05 1.523633795410e-16 -1.570137592956e-09 0.000000000000e+00 0.000000000000e+00 
1.000000000000e+01 0.000000000000e+00 0.000000000000e+00 3.080000000000e+02 0.000000000000e+00 0.000000000000e+00 -5.093204689003e+05 -1.079129422717e-07 -2.212393746326e+06 -2.212362838110e+06 8.651455235587e-05 -1.096395493481e-17 -1.570137341572e-09 0.000000000000e+00 0.000000000000e+00 
1  2  3  4  
4  3  5  6  
6  5  7  8  
8  7  9  10  
10  9  11  12  
2  13  14  3  
3  14  15  5  
5  15  16  7  
7  16  17  9  
9  17  18  11  
13  19  20  14  
14  20  21  15  
15  21  22  16  
16  22  23  17  
17  23  24  18  
19  25  26  20  
20  26  27  21  
21  27  28  22  
22  28  29  23  
23  29  30  24  
25  31  32  26  
26  32  33  27  
27  33  34  28  
28  34  35  29  
29  35  36  30  
31  37  38  32  
32  38  39  33  
33  39  40  34  
34  40  41  35  
35  41  42  36  
37  43  44  38  
38  44  45  39  
39  45  46  40  
40  46  47  41  
41  47  48  42  
43  49  50  44  
44  50  51  45  
45  51  52  46  
46  52  53  47  
47  53  54  48  
49  55  56  50  
50  56  57  51  
51  57  58  52  
52  58  59  53  
53  59  60  54  
55  61  62  56  
56  62  63  57  
57  63  64  58  
58  64  65  59  
59  65  66  60  
12  11  67  68  
68  67  69  70  
70  69  71  72  
72  71  73  74  
74  73  75  76  
11  18  77  67  
67  77  78  69  
69  78  79  71  
71  79  80  73  
73  80  81  75  
18  24  82  77  
77  82  83  78  
78  83  84  79  
79  84  85  80  
80  85  86  81  
24  30  87  82  
82  87  88  83  
83  88  89  84  
84  89  90  85  
85  90  91  86  
30  36  92  87  
87  92  93  88  
88  93  94  89  
89  94  95  90  
90  95  96  91  
36  42  97  92  
92  97  98  93  
93  98  99  94  
94  99  100  95  
95  100  101  96  
42  48  102  97  
97  102  103  98  
98  103  104  99  
99  104  105  100  
100  105  106  101  
48  54  107  102  
102  107  108  103  
103  108  109  104  
104  109  110  105  
105  110  111  106  
54  60  112  107  
107  112  113  108  
108  113  114  109  
109  114  115  110  
110  115  116  111  
60  66  117  112  
112  117  118  113  
113  118  119  114  
114  119  120  115  
115  120  121  116  
VARIABLES  = "X","Y","Z", "TEMPERATURE1", "DISPLACEMENT_X1", "DISPLACEMENT_Y1", "STRESS_XX", "STRESS_XY", "STRESS_YY", "STRESS_ZZ", "STRAIN_XX", "STRAIN_XY", "STRAIN_YY", "STRAIN_ZZ", "STRAIN_PLS"
ZONE T="6.000000000000e-01s", N=121, E=100, F=FEPOINT, ET=QUADRILATERAL
STRANDID=1, SOLUTIONTIME=6.000000000000e-01
0.000000000000e+00 1.000000000000e+01 0.000000000000e+00 3.080000000000e+02 0.000000000000e+00 0.000000000000e+00 -5.583095264939e+05 -1.934818427901e-06 -2.230428306711e+06 -2.230459214965e+06 8.494520417431e-05 -1.965775522748e-16 1.570139271870e-09 0.000000000000e+00 0.000000000000e+00 
0.000000000000e+00 9.000000000000e+00 0.000000000000e+00 3.080000000000e+02 0.000000000000e+00 -1.413124584410e-09 -5.583131548137e+05 -6.425474124164e-06 -2.230438116751e+06 -2.230462843322e+06 8.494520417620e-05 -6.528281710151e-16 1.256109797510e-09 0.000000000000e+00 0.000000000000e+00 
1.000000000000e+00 9.000000000000e+00 0.000000000000e+00 3.015497500344e+02 5.128020093129e-05 -1.413124859942e-09 -5.583131548093e+05 5.584039642668e-08 -9.050442882106e+05 -9.050690147776e+05 1.761519768639e-05 5.673384276951e-18 1.256109604935e-09 0.000000000000e+00 0.000000000000e+00 
1.000000000000e+00 1.000000000000e+01 0.000000000000e+00 3.015497500349e+02 5.128020093142e-05 0.000000000000e+00 -5.583095265241e+05 -6.439216779800e-07 -9.050344782554e+05 -9.050653865308e+05 1.761519768834e-05 -6.542244248277e-17 1.570140392965e-09 0.000000000000e+00 0.000000000000e+00 
2.000000000000e+00 9.000000000000e+00 0.000000000000e+00 2.984876091220e+02 5.291353988270e-05 -1.413123453383e-09 -5.583131548264e+05 7.010440387991e-05 -2.758372513995e+05 -2.758619779832e+05 -1.434851978364e-05 7.122607434199e-15 1.256110455113e-09 0.000000000000e+00 0.000000000000e+00 
2.000000000000e+00 1.000000000000e+01 0.000000000000e+00 2.984876091222e+02 5.291353988479e-05 0.000000000000e+00 -5.583095264493e+05 1.347566033747e-05 -2.758274414611e+05 -2.758583496635e+05 -1.434851978072e-05 1.369127090287e-15 1.570136685759e-09 0.000000000000e+00 0.000000000000e+00 
3.000000000000e+00 9.000000000000e+00 0.000000000000e+00 2.980470449832e+02 3.626563740150e-05 -1.413120781967e-09 -5.583131548381e+05 1.033622712253e-05 -1.853103735446e+05 -1.853351001394e+05 -1.894728517869e-05 1.050160675649e-15 1.256111012724e-09 0.000000000000e+00 0.000000000000e+00 
3.000000000000e+00 1.000000000000e+01 0.000000000000e+00 2.980470449816e+02 3.626563740169e-05 0.000000000000e+00 -5.583095262930e+05 -3.535293878792e-07 -1.853005633808e+05 -1.853314714474e+05 -1.894728518616e-05 -3.591858580853e-17 1.570129781642e-09 0.000000000000e+00 0.000000000000e+00 
4.000000000000e+00 9.000000000000e+00 0.000000000000e+00 2.981464401104e+02 1.783711309304e-05 -1.413122769431e-09 -5.583131548111e+05 -6.084942839293e-05 -2.057340298504e+05 -2.057587564196e+05 -1.790976343829e-05 -6.182301924722e-15 1.256109714790e-09 0.000000000000e+00 0.000000000000e+00 
4.000000000000e+00 1.000000000000e+01 0.000000000000e+00 2.981464401106e+02 1.783711309132e-05 0.000000000000e+00 -5.583095264331e+05 -1.012623027310e-05 -2.057242199154e+05 -2.057551281025e+05 -1.790976343520e-05 -1.028824995747e-15 1.570135901062e-09 0.000000000000e+00 0.000000000000e+00 
5.000000000000e+00 9.000000000000e+00 0.000000000000e+00 2.981603599935e+02 2.803059823739e-15 -1.413124139643e-09 -5.583131548299e+05 -5.570259753385e-06 -2.085942797759e+05 -2.086190063622e+05 -1.776446274216e-05 -5.659383909439e-16 1.256110584998e-09 0.000000000000e+00 0.000000000000e+00 
5.000000000000e+00 1.000000000000e+01 0.000000000000e+00 2.981603599935e+02 2.601949765063e-15 0.000000000000e+00 -5.583095264737e+05 6.846442271972e-07 -2.085844697912e+05 -2.086153780183e+05 -1.776446274153e-05 6.955985348324e-17 1.570137936471e-09 0.000000000000e+00 0.000000000000e+00 
0.000000000000e+00 8.000000000000e+00 0.000000000000e+00 3.080000000000e+02 0.000000000000e+00 -2.512219867827e-09 -5.583167831449e+05 -2.058755095503e-07 -2.230447926778e+06 -2.230466471679e+06 8.494520417751e-05 -2.091695177031e-17 9.420809283746e-10 0.000000000000e+00 0.000000000000e+00 
1.000000000000e+00 8.000000000000e+00 0.000000000000e+00 3.015497500341e+02 5.128020093117e-05 -2.512219787296e-09 -5.583167831202e+05 5.009433784961e-06 -9.050540981802e+05 -9.050726430614e+05 1.761519768501e-05 5.089584725520e-16 9.420799645366e-10 0.000000000000e+00 0.000000000000e+00 
2.000000000000e+00 8.000000000000e+00 0.000000000000e+00 2.984876091216e+02 5.291353988082e-05 -2.512219488853e-09 -5.583167831446e+05 4.298619314603e-06 -2.758470613412e+05 -2.758656062482e+05 -1.434851978634e-05 4.367397223637e-16 9.420812745740e-10 0.000000000000e+00 0.000000000000e+00 
3.000000000000e+00 8.000000000000e+00 0.000000000000e+00 2.980470449842e+02 3.626563740131e-05 -2.512219608697e-09 -5.583167832827e+05 -1.202504091734e-05 -1.853201836782e+05 -1.853387287074e+05 -1.894728517243e-05 -1.221744157201e-15 9.420874810031e-10 0.000000000000e+00 0.000000000000e+00 
4.000000000000e+00 8.000000000000e+00 0.000000000000e+00 2.981464401106e+02 1.783711309490e-05 -2.512220343925e-09 -5.583167832305e+05 -1.230519186988e-05 -2.057438398233e+05 -2.057623848103e+05 -1.790976343974e-05 -1.250207493979e-15 9.420853397814e-10 0.000000000000e+00 0.000000000000e+00 
5.000000000000e+00 8.000000000000e+00 0.000000000000e+00 2.981603599931e+02 3.062159012732e-15 -2.512220611604e-09 -5.583167831625e+05 1.801584622015e-07 -2.086040897255e+05 -2.086226346497e+05 -1.776446274445e-05 1.830409975967e-17 9.420821523681e-10 0.000000000000e+00 0.000000000000e+00 
0.000000000000e+00 7.000000000000e+00 0.000000000000e+00 3.080000000000e+02 0.000000000000e+00 -3.297287643517e-09 -5.583204115212e+05 2.640279631100e-06 -2.230457736754e+06 -2.230470100033e+06 8.494520417643e-05 2.682524105198e-16 6.280546029175e-10 0.000000000000e+00 0.000000000000e+00 
1.000000000000e+00 7.000000000000e+00 0.000000000000e+00 3.015497500344e+02 5.128020093094e-05 -3.297287507581e-09 -5.583204115368e+05 1.350713623569e-06 -9.050639081899e+05 -9.050762714843e+05 1.761519768533e-05 1.372325041546e-16 6.280553573990e-10 0.000000000000e+00 0.000000000000e+00 
2.000000000000e+00 7.000000000000e+00 0.000000000000e+00 2.984876091221e+02 5.291353988195e-05 -3.297288161223e-09 -5.583204115524e+05 -3.507904343399e-05 -2.758568714103e+05 -2.758692347178e+05 -1.434851978319e-05 -3.564030812893e-15 6.280560219589e-10 0.000000000000e+00 0.000000000000e+00 
3.000000000000e+00 7.000000000000e+00 0.000000000000e+00 2.980470449832e+02 3.626563740246e-05 -3.297289921371e-09 -5.583204114969e+05 -2.556048613937e-05 -1.853299936021e+05 -1.853423568572e+05 -1.894728517570e-05 -2.596945391760e-15 6.280533559579e-10 0.000000000000e+00 0.000000000000e+00 
4.000000000000e+00 7.000000000000e+00 0.000000000000e+00 2.981464401101e+02 1.783711309445e-05 -3.297289945491e-09 -5.583204115091e+05 1.855765483299e-05 -2.057536498080e+05 -2.057660130753e+05 -1.790976344044e-05 1.885457731032e-15 6.280539770811e-10 0.000000000000e+00 0.000000000000e+00 
5.000000000000e+00 7.000000000000e+00 0.000000000000e+00 2.981603599934e+02 2.907361635078e-15 -3.297289293288e-09 -5.583204115311e+05 4.484383492991e-06 -2.086138997670e+05 -2.086262630550e+05 -1.776446274259e-05 4.556133628879e-16 6.280550309487e-10 0.000000000000e+00 0.000000000000e+00 
0.000000000000e+00 6.000000000000e+00 0.000000000000e+00 3.080000000000e+02 0.000000000000e+00 -3.768328713655e-09 -5.583240398857e+05 1.078202303681e-06 -2.230467546747e+06 -2.230473728390e+06 8.494520417602e-05 1.095453540540e-16 3.140274560038e-10 0.000000000000e+00 0.000000000000e+00 
1.000000000000e+00 6.000000000000e+00 0.000000000000e+00 3.015497500344e+02 5.128020093118e-05 -3.768328749550e-09 -5.583240398812e+05 -4.383187093269e-06 -9.050737182112e+05 -9.050798998490e+05 1.761519768636e-05 -4.453318086761e-16 3.140272010269e-10 0.000000000000e+00 0.000000000000e+00 
2.000000000000e+00 6.000000000000e+00 0.000000000000e+00 2.984876091220e+02 5.291353988308e-05 -3.768329317044e-09 -5.583240398666e+05 -1.880199021573e-05 -2.758666814214e+05 -2.758728630449e+05 -1.434851978254e-05 -1.910282205918e-15 3.140264770776e-10 0.000000000000e+00 0.000000000000e+00 
3.000000000000e+00 6.000000000000e+00 0.000000000000e+00 2.980470449831e+02 3.626563740315e-05 -3.768330142799e-09 -5.583240398728e+05 -8.013506143829e-06 -1.853398035704e+05 -1.853459852012e+05 -1.894728517732e-05 -8.141722242130e-16 3.140268438942e-10 0.000000000000e+00 0.000000000000e+00 
4.000000000000e+00 6.000000000000e+00 0.000000000000e+00 2.981464401101e+02 1.783711309409e-05 -3.768330086041e-09 -5.583240398595e+05 5.700115234259e-06 -2.057634597994e+05 -2.057696414172e+05 -1.790976344087e-05 5.791317078007e-16 3.140261838509e-10 0.000000000000e+00 0.000000000000e+00 
5.000000000000e+00 6.000000000000e+00 0.000000000000e+00 2.981603599934e+02 2.873462326608e-15 -3.768330027741e-09 -5.583240398691e+05 -3.599074067446e-06 -2.086237097866e+05 -2.086298914124e+05 -1.776446274160e-05 -3.656659252525e-16 3.140265905483e-10 0.000000000000e+00 0.000000000000e+00 
0.000000000000e+00 5.000000000000e+00 0.000000000000e+00 3.080000000000e+02 0.000000000000e+00 -3.925342530636e-09 -5.583276682469e+05 5.764127286531e-07 -2.230477356742e+06 -2.230477356746e+06 8.494520417576e-05 5.856353323116e-17 2.191454386100e-16 0.000000000000e+00 0.000000000000e+00 
1.000000000000e+00 5.000000000000e+00 0.000000000000e+00 3.015497500345e+02 5.128020093126e-05 -3.925342519311e-09 -5.583276682510e+05 -4.562560574201e-07 -9.050835282186e+05 -9.050835282261e+05 1.761519768674e-05 -4.635561543388e-17 3.826066896429e-16 0.000000000000e+00 0.000000000000e+00 
2.000000000000e+00 5.000000000000e+00 0.000000000000e+00 2.984876091222e+02 5.291353988373e-05 -3.925342690181e-09 -5.583276682482e+05 -6.044349052747e-06 -2.758764914394e+05 -2.758764914438e+05 -1.434851978166e-05 -6.141058637591e-16 2.247079351221e-16 0.000000000000e+00 0.000000000000e+00 
3.000000000000e+00 5.000000000000e+00 0.000000000000e+00 2.980470449829e+02 3.626563740345e-05 -3.925342982766e-09 -5.583276682172e+05 -3.377374955643e-06 -1.853496135361e+05 -1.853496135127e+05 -1.894728517899e-05 -3.431412954933e-16 -1.187273787824e-15 0.000000000000e+00 0.000000000000e+00 
4.000000000000e+00 5.000000000000e+00 0.000000000000e+00 2.981464401102e+02 1.783711309390e-05 -3.925342995668e-09 -5.583276682365e+05 1.855356261108e-06 -2.057732698141e+05 -2.057732698073e+05 -1.790976344020e-05 1.885041961286e-16 -3.472105105746e-16 0.000000000000e+00 0.000000000000e+00 
5.000000000000e+00 5.000000000000e+00 0.000000000000e+00 2.981603599934e+02 3.149124710058e-15 -3.925343059608e-09 -5.583276682314e+05 -5.935691931489e-06 -2.086335197938e+05 -2.086335197825e+05 -1.776446274121e-05 -6.030663002392e-16 -5.759421575063e-16 0.000000000000e+00 0.000000000000e+00 
0.000000000000e+00 4.000000000000e+00 0.000000000000e+00 3.080000000000e+02 0.000000000000e+00 -3.768329002924e-09 -5.583312966036e+05 -5.806281000226e-08 -2.230487166742e+06 -2.230480985102e+06 8.494520417575e-05 -5.899181496229e-18 -3.140272829234e-10 0.000000000000e+00 0.000000000000e+00 
1.000000000000e+00 4.000000000000e+00 0.000000000000e+00 3.015497500345e+02 5.128020093132e-05 -3.768329007793e-09 -5.583312966014e+05 -4.231089643563e-07 -9.050933382218e+05 -9.050871565802e+05 1.761519768692e-05 -4.298787077860e-17 -3.140273900693e-10 0.000000000000e+00 0.000000000000e+00 
2.000000000000e+00 4.000000000000e+00 0.000000000000e+00 2.984876091221e+02 5.291353988372e-05 -3.768328981282e-09 -5.583312965968e+05 2.933727911963e-06 -2.758863014287e+05 -2.758801197830e+05 -1.434851978214e-05 2.980667558555e-16 -3.140276039389e-10 0.000000000000e+00 0.000000000000e+00 
3.000000000000e+00 4.000000000000e+00 0.000000000000e+00 2.980470449832e+02 3.626563740351e-05 -3.768328848736e-09 -5.583312966062e+05 5.423941536719e-07 -1.853594235526e+05 -1.853532419158e+05 -1.894728517827e-05 5.510724601306e-17 -3.140271507993e-10 0.000000000000e+00 0.000000000000e+00 
4.000000000000e+00 4.000000000000e+00 0.000000000000e+00 2.981464401102e+02 1.783711309398e-05 -3.768328960171e-09 -5.583312965942e+05 -2.935387057367e-06 -2.057830798012e+05 -2.057768981533e+05 -1.790976344080e-05 -2.982353250285e-16 -3.140277123134e-10 0.000000000000e+00 0.000000000000e+00 
5.000000000000e+00 4.000000000000e+00 0.000000000000e+00 2.981603599936e+02 3.398032670755e-15 -3.768329114655e-09 -5.583312966037e+05 -5.232056098169e-06 -2.086433298103e+05 -2.086371481707e+05 -1.776446274040e-05 -5.315768995740e-16 -3.140272906559e-10 0.000000000000e+00 0.000000000000e+00 
0.000000000000e+00 3.000000000000e+00 0.000000000000e+00 3.080000000000e+02 0.000000000000e+00 -3.297287970283e-09 -5.583349249601e+05 -5.801429755157e-08 -2.230496976741e+06 -2.230484613459e+06 8.494520417572e-05 -5.894252631240e-18 -6.280547578529e-10 0.000000000000e+00 0.000000000000e+00 
1.000000000000e+00 3.000000000000e+00 0.000000000000e+00 3.015497500345e+02 5.128020093126e-05 -3.297287926145e-09 -5.583349249600e+05 2.140051453857e-06 -9.051031482193e+05 -9.050907849364e+05 1.761519768680e-05 2.174292277118e-16 -6.280547704263e-10 0.000000000000e+00 0.000000000000e+00 
2.000000000000e+00 3.000000000000e+00 0.000000000000e+00 2.984876091221e+02 5.291353988361e-05 -3.297287775291e-09 -5.583349249586e+05 3.439019574150e-06 -2.758961114307e+05 -2.758837481462e+05 -1.434851978207e-05 3.494043887337e-16 -6.280548556116e-10 0.000000000000e+00 0.000000000000e+00 
3.000000000000e+00 3.000000000000e+00 0.000000000000e+00 2.980470449831e+02 3.626563740343e-05 -3.297287607293e-09 -5.583349249496e+05 2.619770747149e-06 -1.853692335519e+05 -1.853568702590e+05 -1.894728517828e-05 2.661687079103e-16 -6.280552808368e-10 0.000000000000e+00 0.000000000000e+00 
4.000000000000e+00 3.000000000000e+00 0.000000000000e+00 2.981464401102e+02 1.783711309409e-05 -3.297287549486e-09 -5.583349249525e+05 -1.296429539182e-06 -2.057928898085e+05 -2.057805265187e+05 -1.790976344043e-05 -1.317172411809e-16 -6.280551183230e-10 0.000000000000e+00 0.000000000000e+00 
5.000000000000e+00 3.000000000000e+00 0.000000000000e+00 2.981603599935e+02 3.726788517441e-15 -3.297287769267e-09 -5.583349249471e+05 -6.822391025215e-06 -2.086531398113e+05 -2.086407765159e+05 -1.776446274031e-05 -6.931549281619e-16 -6.280554101291e-10 0.000000000000e+00 0.000000000000e+00 
0.000000000000e+00 2.000000000000e+00 0.000000000000e+00 3.080000000000e+02 0.000000000000e+00 -2.512219490467e-09 -5.583385533170e+05 -2.970293297825e-07 -2.230506786740e+06 -2.230488241815e+06 8.494520417568e-05 -3.017817990591e-17 -9.420822128347e-10 0.000000000000e+00 0.000000000000e+00 
1.000000000000e+00 2.000000000000e+00 0.000000000000e+00 3.015497500345e+02 5.128020093117e-05 -2.512219469521e-09 -5.583385533191e+05 1.464216578068e-06 -9.051129582157e+05 -9.050944132922e+05 1.761519768663e-05 1.487644043317e-16 -9.420821151850e-10 0.000000000000e+00 0.000000000000e+00 
2.000000000000e+00 2.000000000000e+00 0.000000000000e+00 2.984876091221e+02 5.291353988331e-05 -2.512219250389e-09 -5.583385533194e+05 8.581925174615e-06 -2.759059214263e+05 -2.758873765020e+05 -1.434851978233e-05 8.719235977408e-16 -9.420821535772e-10 0.000000000000e+00 0.000000000000e+00 
3.000000000000e+00 2.000000000000e+00 0.000000000000e+00 2.980470449831e+02 3.626563740309e-05 -2.512218676405e-09 -5.583385533100e+05 1.482711514466e-05 -1.853790435575e+05 -1.853604986246e+05 -1.894728517802e-05 1.506434898698e-15 -9.420825920392e-10 0.000000000000e+00 0.000000000000e+00 
4.000000000000e+00 2.000000000000e+00 0.000000000000e+00 2.981464401102e+02 1.783711309414e-05 -2.512218240420e-09 -5.583385532881e+05 -1.302997530830e-06 -2.058026998166e+05 -2.057841548638e+05 -1.790976343996e-05 -1.323845491323e-16 -9.420836057725e-10 0.000000000000e+00 0.000000000000e+00 
5.000000000000e+00 2.000000000000e+00 0.000000000000e+00 2.981603599936e+02 4.189466556497e-15 -2.512218753253e-09 -5.583385533100e+05 -1.508552922050e-05 -2.086629498178e+05 -2.086444048847e+05 -1.776446274000e-05 -1.532689768803e-15 -9.420826018333e-10 0.000000000000e+00 0.000000000000e+00 
0.000000000000e+00 1.000000000000e+00 0.000000000000e+00 3.080000000000e+02 0.000000000000e+00 -1.413123487468e-09 -5.583421816714e+05 4.984862108516e-07 -2.230516596742e+06 -2.230491870171e+06 8.494520417577e-05 5.064619902252e-17 -1.256109814469e-09 0.000000000000e+00 0.000000000000e+00 
1.000000000000e+00 1.000000000000e+00 0.000000000000e+00 3.015497500345e+02 5.128020093118e-05 -1.413123534755e-09 -5.583421816712e+05 -4.444513435385e-06 -9.051227682140e+05 -9.050980416430e+05 1.761519768657e-05 -4.515625650351e-16 -1.256109804869e-09 0.000000000000e+00 0.000000000000e+00 
2.000000000000e+00 1.000000000000e+00 0.000000000000e+00 2.984876091221e+02 5.291353988291e-05 -1.413123608170e-09 -5.583421816870e+05 6.082981901175e-06 -2.759157314098e+05 -2.758910048540e+05 -1.434851978311e-05 6.180309611594e-16 -1.256109034070e-09 0.000000000000e+00 0.000000000000e+00 
3.000000000000e+00 1.000000000000e+00 0.000000000000e+00 2.980470449832e+02 3.626563740222e-05 -1.413122913173e-09 -5.583421816885e+05 1.918670209546e-05 -1.853888535511e+05 -1.853641269971e+05 -1.894728517832e-05 1.949368932899e-15 -1.256108943541e-09 0.000000000000e+00 0.000000000000e+00 
4.000000000000e+00 1.000000000000e+00 0.000000000000e+00 2.981464401107e+02 1.783711309415e-05 -1.413122357962e-09 -5.583421817064e+05 2.328486203836e-06 -2.058125098643e+05 -2.057877833258e+05 -1.790976343773e-05 2.365741983097e-16 -1.256108152391e-09 0.000000000000e+00 0.000000000000e+00 
5.000000000000e+00 1.000000000000e+00 0.000000000000e+00 2.981603599936e+02 4.956648854950e-15 -1.413122681768e-09 -5.583421816755e+05 -1.233659572460e-05 -2.086727598053e+05 -2.086480332387e+05 -1.776446274059e-05 -1.253398125619e-15 -1.256109583122e-09 0.000000000000e+00 0.000000000000e+00 
0.000000000000e+00 0.000000000000e+00 0.000000000000e+00 3.080000000000e+02 0.000000000000e+00 0.000000000000e+00 -5.583458100316e+05 5.143633722551e-07 -2.230526406739e+06 -2.230495498527e+06 8.494520417557e-05 5.225931862112e-17 -1.570137143614e-09 0.000000000000e+00 0.000000000000e+00 
1.000000000000e+00 0.000000000000e+00 0.000000000000e+00 3.015497500346e+02 5.128020093136e-05 0.000000000000e+00 -5.583458100296e+05 -1.997350171238e-06 -9.051325782278e+05 -9.051016700141e+05 1.761519768721e-05 -2.029307773978e-16 -1.570137252874e-09 0.000000000000e+00 0.000000000000e+00 
2.000000000000e+00 0.000000000000e+00 0.000000000000e+00 2.984876091218e+02 5.291353988277e-05 0.000000000000e+00 -5.583458100056e+05 -2.629509409623e-07 -2.759255413799e+05 -2.758946331457e+05 -1.434851978449e-05 -2.671581560177e-17 -1.570138298227e-09 0.000000000000e+00 0.000000000000e+00 
3.000000000000e+00 0.000000000000e+00 0.000000000000e+00 2.980470449832e+02 3.626563740175e-05 0.000000000000e+00 -5.583458100375e+05 1.169347182482e-06 -1.853986635651e+05 -1.853677553592e+05 -1.894728517766e-05 1.188056737402e-16 -1.570136859821e-09 0.000000000000e+00 0.000000000000e+00 
4.000000000000e+00 0.000000000000e+00 0.000000000000e+00 2.981464401106e+02 1.783711309402e-05 0.000000000000e+00 -5.583458100460e+05 1.179637279271e-06 -2.058223198645e+05 -2.057914116665e+05 -1.790976343768e-05 1.198511475739e-16 -1.570136460049e-09 0.000000000000e+00 0.000000000000e+00 
5.000000000000e+00 0.000000000000e+00 0.000000000000e+00 2.981603599938e+02 5.168296406962e-15 0.000000000000e+00 -5.583458100605e+05 1.087761657030e-06 -2.086825698195e+05 -2.086516616359e+05 -1.776446273997e-05 1.105165843542e-16 -1.570135730832e-09 0.000000000000e+00 0.000000000000e+00 
6.000000000000e+00 9.000000000000e+00 0.000000000000e+00 2.981464401105e+02 -1.783711308688e-05 -1.413124062834e-09 -5.583131548151e+05 -6.556120274675e-07 -2.057340298721e+05 -2.057587564455e+05 -1.790976343718e-05 -6.661018199070e-17 1.256109929734e-09 0.000000000000e+00 0.000000000000e+00 
6.000000000000e+00 1.000000000000e+01 0.000000000000e+00 2.981464401106e+02 -1.783711308690e-05 0.000000000000e+00 -5.583095264739e+05 -1.039694568605e-07 -2.057242198646e+05 -2.057551280961e+05 -1.790976343760e-05 -1.056329681702e-17 1.570138156664e-09 0.000000000000e+00 0.000000000000e+00 
7.000000000000e+00 9.000000000000e+00 0.000000000000e+00 2.980470449831e+02 -3.626563739494e-05 -1.413124263202e-09 -5.583131548351e+05 5.285486322112e-06 -1.853103735377e+05 -1.853351001298e+05 -1.894728517903e-05 5.370054103266e-16 1.256110878073e-09 0.000000000000e+00 0.000000000000e+00 
7.000000000000e+00 1.000000000000e+01 0.000000000000e+00 2.980470449832e+02 -3.626563739472e-05 0.000000000000e+00 -5.583095264653e+05 3.536080142102e-06 -1.853005635608e+05 -1.853314717831e+05 -1.894728517785e-05 3.592657424375e-16 1.570137690333e-09 0.000000000000e+00 0.000000000000e+00 
8.000000000000e+00 9.000000000000e+00 0.000000000000e+00 2.984876091216e+02 -5.291353987865e-05 -1.413124268742e-09 -5.583131548369e+05 -2.770671260088e-05 -2.758372513081e+05 -2.758619779018e+05 -1.434851978830e-05 -2.815002000250e-15 1.256110957400e-09 0.000000000000e+00 0.000000000000e+00 
8.000000000000e+00 1.000000000000e+01 0.000000000000e+00 2.984876091211e+02 -5.291353987953e-05 0.000000000000e+00 -5.583095264498e+05 -5.737350450417e-06 -2.758274412238e+05 -2.758583494377e+05 -1.434851979221e-05 -5.829148057623e-16 1.570137265779e-09 0.000000000000e+00 0.000000000000e+00 
9.000000000000e+00 9.000000000000e+00 0.000000000000e+00 3.015497500343e+02 -5.128020093023e-05 -1.413126139712e-09 -5.583131548200e+05 -2.211869306821e-05 -9.050442881853e+05 -9.050690147630e+05 1.761519768510e-05 -2.247259215730e-15 1.256110146820e-09 0.000000000000e+00 0.000000000000e+00 
9.000000000000e+00 1.000000000000e+01 0.000000000000e+00 3.015497500353e+02 -5.128020093090e-05 0.000000000000e+00 -5.583095265663e+05 -3.273632516637e-06 -9.050344782819e+05 -9.050653865981e+05 1.761519768962e-05 -3.326010636904e-16 1.570142459644e-09 0.000000000000e+00 0.000000000000e+00 
1.000000000000e+01 9.000000000000e+00 0.000000000000e+00 3.080000000000e+02 0.000000000000e+00 -1.413125963209e-09 -5.583131548301e+05 1.141740585418e-05 -2.230438116735e+06 -2.230462843322e+06 8.494520417538e-05 1.160008434784e-15 1.256110616081e-09 0.000000000000e+00 0.000000000000e+00 
1.000000000000e+01 1.000000000000e+01 0.000000000000e+00 3.080000000000e+02 0.000000000000e+00 0.000000000000e+00 -5.583095265332e+05 3.749702111052e-06 -2.230428306672e+06 -2.230459214965e+06 8.494520417232e-05 3.809697344829e-16 1.570141257188e-09 0.000000000000e+00 0.000000000000e+00 
6.000000000000e+00 8.000000000000e+00 0.000000000000e+00 2.981464401108e+02 -1.783711308683e-05 -2.512220612828e-09 -5.583167831890e+05 -2.483383634441e-07 -2.057438399115e+05 -2.057623848562e+05 -1.790976343530e-05 -2.523117772592e-17 9.420831925829e-10 0.000000000000e+00 0.000000000000e+00 
7.000000000000e+00 8.000000000000e+00 0.000000000000e+00 2.980470449828e+02 -3.626563739483e-05 -2.512220765241e-09 -5.583167831627e+05 -6.016907232647e-06 -1.853201835019e+05 -1.853387284237e+05 -1.894728518074e-05 -6.113177748369e-16 9.420820260348e-10 0.000000000000e+00 0.000000000000e+00 
8.000000000000e+00 8.000000000000e+00 0.000000000000e+00 2.984876091219e+02 -5.291353987775e-05 -2.512221188300e-09 -5.583167831936e+05 -1.115641272442e-05 -2.758470613781e+05 -2.758656063244e+05 -1.434851978496e-05 -1.133491532801e-15 9.420832690875e-10 0.000000000000e+00 0.000000000000e+00 
9.000000000000e+00 8.000000000000e+00 0.000000000000e+00 3.015497500338e+02 -5.128020092951e-05 -2.512221662810e-09 -5.583167831310e+05 -4.902814699501e-06 -9.050540981100e+05 -9.050726430024e+05 1.761519768146e-05 -4.981259734693e-16 9.420805330289e-10 0.000000000000e+00 0.000000000000e+00 
1.000000000000e+01 8.000000000000e+00 0.000000000000e+00 3.080000000000e+02 0.000000000000e+00 -2.512221716383e-09 -5.583167831456e+05 8.780843059880e-07 -2.230447926776e+06 -2.230466471678e+06 8.494520417745e-05 8.921336548838e-17 9.420810200403e-10 0.000000000000e+00 0.000000000000e+00 
6.000000000000e+00 7.000000000000e+00 0.000000000000e+00 2.981464401105e+02 -1.783711308675e-05 -3.297289528581e-09 -5.583204115237e+05 -4.136652064405e-06 -2.057536498801e+05 -2.057660131615e+05 -1.790976343680e-05 -4.202838497436e-16 6.280546931662e-10 0.000000000000e+00 0.000000000000e+00 
7.000000000000e+00 7.000000000000e+00 0.000000000000e+00 2.980470449831e+02 -3.626563739451e-05 -3.297289588869e-09 -5.583204115439e+05 -6.144064527697e-06 -1.853299935466e+05 -1.853423568462e+05 -1.894728517864e-05 -6.242369560141e-16 6.280556208744e-10 0.000000000000e+00 0.000000000000e+00 
8.000000000000e+00 7.000000000000e+00 0.000000000000e+00 2.984876091216e+02 -5.291353987753e-05 -3.297289987444e-09 -5.583204115170e+05 3.880944729789e-07 -2.758568713248e+05 -2.758692346001e+05 -1.434851978738e-05 3.943039845465e-17 6.280543870253e-10 0.000000000000e+00 0.000000000000e+00 
9.000000000000e+00 7.000000000000e+00 0.000000000000e+00 3.015497500342e+02 -5.128020092964e-05 -3.297289625015e-09 -5.583204115372e+05 6.098368502681e-06 -9.050639081470e+05 -9.050762714411e+05 1.761519768312e-05 6.195942398724e-16 6.280553386999e-10 0.000000000000e+00 0.000000000000e+00 
1.000000000000e+01 7.000000000000e+00 0.000000000000e+00 3.080000000000e+02 0.000000000000e+00 -3.297289675513e-09 -5.583204115266e+05 -2.939956175911e-06 -2.230457736749e+06 -2.230470100034e+06 8.494520417616e-05 -2.986995474725e-16 6.280548440490e-10 0.000000000000e+00 0.000000000000e+00 
6.000000000000e+00 6.000000000000e+00 0.000000000000e+00 2.981464401105e+02 -1.783711308641e-05 -3.768330365762e-09 -5.583240398748e+05 -9.124531675791e-06 -2.057634598780e+05 -2.057696415100e+05 -1.790976343693e-05 -9.270524182604e-16 3.140269073418e-10 0.000000000000e+00 0.000000000000e+00 
7.000000000000e+00 6.000000000000e+00 0.000000000000e+00 2.980470449830e+02 -3.626563739427e-05 -3.768330735528e-09 -5.583240398730e+05 -4.766285801099e-06 -1.853398035429e+05 -1.853459851729e+05 -1.894728517877e-05 -4.842546373916e-16 3.140268019762e-10 0.000000000000e+00 0.000000000000e+00 
8.000000000000e+00 6.000000000000e+00 0.000000000000e+00 2.984876091215e+02 -5.291353987755e-05 -3.768330844946e-09 -5.583240398793e+05 -3.466810974189e-08 -2.758666813169e+05 -2.758728629539e+05 -1.434851978781e-05 -3.522279949776e-18 3.140271591028e-10 0.000000000000e+00 0.000000000000e+00 
9.000000000000e+00 6.000000000000e+00 0.000000000000e+00 3.015497500341e+02 -5.128020092976e-05 -3.768330830419e-09 -5.583240398811e+05 8.082856035368e-07 -9.050737181525e+05 -9.050798997903e+05 1.761519768339e-05 8.212181731933e-17 3.140272014430e-10 0.000000000000e+00 0.000000000000e+00 
1.000000000000e+01 6.000000000000e+00 0.000000000000e+00 3.080000000000e+02 0.000000000000e+00 -3.768330798578e-09 -5.583240398835e+05 3.561806264101e-07 -2.230467546749e+06 -2.230473728390e+06 8.494520417614e-05 3.618795164326e-17 3.140273475055e-10 0.000000000000e+00 0.000000000000e+00 
6.000000000000e+00 5.000000000000e+00 0.000000000000e+00 2.981464401105e+02 -1.783711308594e-05 -3.925343540252e-09 -5.583276682325e+05 -1.129454459759e-05 -2.057732698761e+05 -2.057732698660e+05 -1.790976343702e-05 -1.147525731115e-15 -5.145949774222e-16 0.000000000000e+00 0.000000000000e+00 
7.000000000000e+00 5.000000000000e+00 0.000000000000e+00 2.980470449830e+02 -3.626563739396e-05 -3.925343993783e-09 -5.583276682360e+05 -7.189178768551e-06 -1.853496135377e+05 -1.853496135310e+05 -1.894728517901e-05 -7.304205628848e-16 -3.439124483192e-16 0.000000000000e+00 0.000000000000e+00 
8.000000000000e+00 5.000000000000e+00 0.000000000000e+00 2.984876091215e+02 -5.291353987744e-05 -3.925344251656e-09 -5.583276682372e+05 -3.210603364382e-06 -2.758764913148e+05 -2.758764913091e+05 -1.434851978794e-05 -3.261973018212e-16 -2.869014031638e-16 0.000000000000e+00 0.000000000000e+00 
9.000000000000e+00 5.000000000000e+00 0.000000000000e+00 3.015497500341e+02 -5.128020092975e-05 -3.925344339002e-09 -5.583276682386e+05 -7.706549262424e-07 -9.050835281510e+05 -9.050835281468e+05 1.761519768333e-05 -7.829854050622e-17 -2.152127215291e-16 0.000000000000e+00 0.000000000000e+00 
1.000000000000e+01 5.000000000000e+00 0.000000000000e+00 3.080000000000e+02 0.000000000000e+00 -3.925344355352e-09 -5.583276682390e+05 -1.001880737115e-08 -2.230477356750e+06 -2.230477356746e+06 8.494520417617e-05 -1.017910828909e-18 -1.928298005390e-16 0.000000000000e+00 0.000000000000e+00 
6.000000000000e+00 4.000000000000e+00 0.000000000000e+00 2.981464401105e+02 -1.783711308539e-05 -3.768329538468e-09 -5.583312965988e+05 -1.026593492803e-05 -2.057830798736e+05 -2.057768982298e+05 -1.790976343714e-05 -1.043018988688e-15 -3.140275056453e-10 0.000000000000e+00 0.000000000000e+00 
7.000000000000e+00 4.000000000000e+00 0.000000000000e+00 2.980470449830e+02 -3.626563739358e-05 -3.768330008660e-09 -5.583312965966e+05 -7.837273449378e-06 -1.853594235330e+05 -1.853532418869e+05 -1.894728517925e-05 -7.962669824568e-16 -3.140276185226e-10 0.000000000000e+00 0.000000000000e+00 
8.000000000000e+00 4.000000000000e+00 0.000000000000e+00 2.984876091215e+02 -5.291353987726e-05 -3.768330295194e-09 -5.583312965963e+05 -3.808896674415e-06 -2.758863013117e+05 -2.758801196652e+05 -1.434851978810e-05 -3.869839021206e-16 -3.140276433147e-10 0.000000000000e+00 0.000000000000e+00 
9.000000000000e+00 4.000000000000e+00 0.000000000000e+00 3.015497500341e+02 -5.128020092969e-05 -3.768330413217e-09 -5.583312965966e+05 -1.103781268668e-06 -9.050933381491e+05 -9.050871565029e+05 1.761519768324e-05 -1.121441768967e-16 -3.140276251590e-10 0.000000000000e+00 0.000000000000e+00 
1.000000000000e+01 4.000000000000e+00 0.000000000000e+00 3.080000000000e+02 0.000000000000e+00 -3.768330428657e-09 -5.583312965958e+05 1.324259432563e-07 -2.230487166749e+06 -2.230480985102e+06 8.494520417614e-05 1.345447583484e-17 -3.140276626487e-10 0.000000000000e+00 0.000000000000e+00 
6.000000000000e+00 3.000000000000e+00 0.000000000000e+00 2.981464401105e+02 -1.783711308493e-05 -3.297288206213e-09 -5.583349249523e+05 -9.842950446351e-06 -2.057928898766e+05 -2.057805265861e+05 -1.790976343700e-05 -1.000043765349e-15 -6.280551590785e-10 0.000000000000e+00 0.000000000000e+00 
7.000000000000e+00 3.000000000000e+00 0.000000000000e+00 2.980470449830e+02 -3.626563739316e-05 -3.297288710314e-09 -5.583349249556e+05 -9.985312938146e-06 -1.853692335291e+05 -1.853568702418e+05 -1.894728517946e-05 -1.014507794516e-15 -6.280549924547e-10 0.000000000000e+00 0.000000000000e+00 
8.000000000000e+00 3.000000000000e+00 0.000000000000e+00 2.984876091215e+02 -5.291353987708e-05 -3.297289061060e-09 -5.583349249600e+05 -2.869534372622e-06 -2.758961113072e+05 -2.758837480238e+05 -1.434851978836e-05 -2.915446922584e-16 -6.280547928827e-10 0.000000000000e+00 0.000000000000e+00 
9.000000000000e+00 3.000000000000e+00 0.000000000000e+00 3.015497500341e+02 -5.128020092969e-05 -3.297289033631e-09 -5.583349249523e+05 2.202645129788e-06 -9.051031481469e+05 -9.050907848568e+05 1.761519768315e-05 2.237887451864e-16 -6.280551377746e-10 0.000000000000e+00 0.000000000000e+00 
1.000000000000e+01 3.000000000000e+00 0.000000000000e+00 3.080000000000e+02 0.000000000000e+00 -3.297288991865e-09 -5.583349249504e+05 6.670829054449e-08 -2.230496976751e+06 -2.230484613458e+06 8.494520417621e-05 6.777562319320e-18 -6.280552374752e-10 0.000000000000e+00 0.000000000000e+00 
6.000000000000e+00 2.000000000000e+00 0.000000000000e+00 2.981464401106e+02 -1.783711308436e-05 -2.512219384151e-09 -5.583385533126e+05 -1.238271749343e-05 -2.058026998763e+05 -2.057841549459e+05 -1.790976343703e-05 -1.258084097333e-15 -9.420824633408e-10 0.000000000000e+00 0.000000000000e+00 
7.000000000000e+00 2.000000000000e+00 0.000000000000e+00 2.980470449830e+02 -3.626563739264e-05 -2.512219958971e-09 -5.583385533125e+05 -9.987557175669e-06 -1.853790435278e+05 -1.853604985971e+05 -1.894728517954e-05 -1.014735809048e-15 -9.420824784388e-10 0.000000000000e+00 0.000000000000e+00 
8.000000000000e+00 2.000000000000e+00 0.000000000000e+00 2.984876091214e+02 -5.291353987702e-05 -2.512220211692e-09 -5.583385533034e+05 1.542405621944e-06 -2.759059212901e+05 -2.758873763510e+05 -1.434851978918e-05 1.567084111895e-16 -9.420829072858e-10 0.000000000000e+00 0.000000000000e+00 
9.000000000000e+00 2.000000000000e+00 0.000000000000e+00 3.015497500341e+02 -5.128020092985e-05 -2.512220002390e-09 -5.583385533024e+05 3.579085223436e-06 -9.051129581534e+05 -9.050944132134e+05 1.761519768348e-05 3.636350587011e-16 -9.420829482814e-10 0.000000000000e+00 0.000000000000e+00 
1.000000000000e+01 2.000000000000e+00 0.000000000000e+00 3.080000000000e+02 0.000000000000e+00 -2.512219981022e-09 -5.583385533065e+05 -9.875275560298e-07 -2.230506786751e+06 -2.230488241815e+06 8.494520417622e-05 -1.003327996926e-16 -9.420827733259e-10 0.000000000000e+00 0.000000000000e+00 
6.000000000000e+00 1.000000000000e+00 0.000000000000e+00 2.981464401106e+02 -1.783711308375e-05 -1.413123269082e-09 -5.583421816721e+05 -1.288070894547e-05 -2.058125098784e+05 -2.057877833081e+05 -1.790976343689e-05 -1.308680028860e-15 -1.256109771310e-09 0.000000000000e+00 0.000000000000e+00 
7.000000000000e+00 1.000000000000e+00 0.000000000000e+00 2.980470449830e+02 -3.626563739222e-05 -1.413123813543e-09 -5.583421816715e+05 -9.386918884373e-06 -1.853888535171e+05 -1.853641269463e+05 -1.894728518004e-05 -9.537109586523e-16 -1.256109798911e-09 0.000000000000e+00 0.000000000000e+00 
8.000000000000e+00 1.000000000000e+00 0.000000000000e+00 2.984876091214e+02 -5.291353987715e-05 -1.413123990132e-09 -5.583421816775e+05 3.882310648874e-06 -2.759157312771e+05 -2.758910047120e+05 -1.434851978985e-05 3.944427619256e-16 -1.256109509888e-09 0.000000000000e+00 0.000000000000e+00 
9.000000000000e+00 1.000000000000e+00 0.000000000000e+00 3.015497500343e+02 -5.128020093001e-05 -1.413123680153e-09 -5.583421816737e+05 5.132017502638e-06 -9.051227681670e+05 -9.050980415977e+05 1.761519768414e-05 5.214129782680e-16 -1.256109718135e-09 0.000000000000e+00 0.000000000000e+00 
1.000000000000e+01 1.000000000000e+00 0.000000000000e+00 3.080000000000e+02 0.000000000000e+00 -1.413123643063e-09 -5.583421816694e+05 -1.198032488308e-06 -2.230516596744e+06 -2.230491870171e+06 8.494520417587e-05 -1.217201008121e-16 -1.256109911563e-09 0.000000000000e+00 0.000000000000e+00 
6.000000000000e+00 0.000000000000e+00 0.000000000000e+00 2.981464401106e+02 -1.783711308335e-05 0.000000000000e+00 -5.583458100386e+05 -1.806578653344e-06 -2.058223198764e+05 -2.057914116721e+05 -1.790976343702e-05 -1.835483911798e-16 -1.570136774373e-09 0.000000000000e+00 0.000000000000e+00 
7.000000000000e+00 0.000000000000e+00 0.000000000000e+00 2.980470449829e+02 -3.626563739191e-05 0.000000000000e+00 -5.583458100158e+05 -1.712211292093e-06 -1.853986635147e+05 -1.853677552887e+05 -1.894728518013e-05 -1.739606672766e-16 -1.570137879771e-09 0.000000000000e+00 0.000000000000e+00 
8.000000000000e+00 0.000000000000e+00 0.000000000000e+00 2.984876091212e+02 -5.291353987723e-05 0.000000000000e+00 -5.583458100021e+05 4.117362212485e-07 -2.759255412600e+05 -2.758946330212e+05 -1.434851979063e-05 4.183240007885e-17 -1.570138530465e-09 0.000000000000e+00 0.000000000000e+00 
9.000000000000e+00 0.000000000000e+00 0.000000000000e+00 3.015497500343e+02 -5.128020093020e-05 0.000000000000e+00 -5.583458100229e+05 1.511077634423e-06 -9.051325781781e+05 -9.051016699574e+05 1.761519768468e-05 1.535254876574e-16 -1.570137610502e-09 0.000000000000e+00 0.000000000000e+00 
1.000000000000e+01 0.000000000000e+00 0.000000000000e+00 3.080000000000e+02 0.000000000000e+00 0.000000000000e+00 -5.583458100276e+05 -1.084082734120e-07 -2.230526406743e+06 -2.230495498527e+06 8.494520417578e-05 -1.101428057866e-17 -1.570137356855e-09 0.000000000000e+00 0.000000000000e+00 
1  2  3  4  
4  3  5  6  
6  5  7  8  
8  7  9  10  
10  9  11  12  
2  13  14  3  
3  14  15  5  
5  15  16  7  
7  16  17  9  
9  17  18  11  
13  19  20  14  
14  20  21  15  
15  21  22  16  
16  22  23  17  
17  23  24  18  
19  25  26  20  
20  26  27  21  
21  27  28  22  
22  28  29  23  
23  29  30  24  
25  31  32  26  
26  32  33  27  
27  33  34  28  
28  34  35  29  
29  35  36  30  
31  37  38  32  
32  38  39  33  
33  39  40  34  
34  40  41  35  
35  41  42  36  
37  43  44  38  
38  44  45  39  
39  45  46  40  
40  46  47  41  
41  47  48  42  
43  49  50  44  
44  50  51  45  
45  51  52  46  
46  52  53  47  
47  53  54  48  
49  55  56  50  
50  56  57  51  
51  57  58  52  
52  58  59  53  
53  59  60  54  
55  61  62  56  
56  62  63  57  
57  63  64  58  
58  64  65  59  
59  65  66  60  
12  11  67  68  
68  67  69  70  
70  69  71  72  
72  71  73  74  
74  73  75  76  
11  18  77  67  
67  77  78  69  
69  78  79  71  
71  79  80  73  
73  80  81  75  
18  24  82  77  
77  82  83  78  
78  83  84  79  
79  84  85  80  
80  85  86  81  
24  30  87  82  
82  87  88  83  
83  88  89  84  
84  89  90  85  
85  90  91  86  
30  36  92  87  
87  92  93  88  
88  93  94  89  
89  94  95  90  
90  95  96  91  
36  42  97  92  
92  97  98  93  
93  98  99  94  
94  99  100  95  
95  100  101  96  
42  48  102  97  
97  102  103  98  
98  103  104  99  
99  104  105  100  
100  105  106  101  
48  54  107  102  
102  107  108  103  
103  108  109  104  
104  109  110  105  
105  110  111  106  
54  60  112  107  
107  112  113  108  
108  113  114  109  
109  114  115  110  
110  115  116  111  
60  66  117  112  
112  117  118  113  
113  118  119  114  
114  119  120  115  
115  120  121  116  
VARIABLES  = "X","Y","Z", "TEMPERATURE1", "DISPLACEMENT_X1", "DISPLACEMENT_Y1", "STRESS_XX", "STRESS_XY", "STRESS_YY", "STRESS_ZZ", "STRAIN_XX", "STRAIN_XY", "STRAIN_YY", "STRAIN_ZZ", "STRAIN_PLS"
ZONE T="7.000000000000e-01s", N=121, E=100, F=FEPOINT, ET=QUADRILATERAL
STRANDID=1, SOLUTIONTIME=7.000000000000e-01
0.000000000000e+00 1.000000000000e+01 0.000000000000e+00 3.080000000000e+02 0.000000000000e+00 0.000000000000e+00 -6.034188267440e+05 -1.958395978756e-06 -2.247112568448e+06 -2.247143476701e+06 8.350121221782e-05 -1.989730314416e-16 1.570139258111e-09 0.000000000000e+00 0.000000000000e+00 
0.000000000000e+00 9.000000000000e+00 0.000000000000e+00 3.080000000000e+02 0.000000000000e+00 -1.413124560860e-09 -6.034224550634e+05 -6.537539579169e-06 -2.247122378488e+06 -2.247147105058e+06 8.350121221973e-05 -6.642140212436e-16 1.256109765338e-09 0.000000000000e+00 0.000000000000e+00 
1.000000000000e+00 9.000000000000e+00 0.000000000000e+00 3.019496152396e+02 5.192317668950e-05 -1.413124833138e-09 -6.034224550590e+05 4.835392012100e-07 -1.003892633203e+06 -1.003917359770e+06 2.034514115931e-05 4.912758284294e-17 1.256109570271e-09 0.000000000000e+00 0.000000000000e+00 
1.000000000000e+00 1.000000000000e+01 0.000000000000e+00 3.019496152401e+02 5.192317668965e-05 0.000000000000e+00 -6.034188267744e+05 -6.162101692268e-07 -1.003882823249e+06 -1.003913731524e+06 2.034514116130e-05 -6.260695319345e-17 1.570140379482e-09 0.000000000000e+00 0.000000000000e+00 
2.000000000000e+00 9.000000000000e+00 0.000000000000e+00 2.987640169621e+02 5.564211313972e-05 -1.413123388194e-09 -6.034224550760e+05 7.121629322490e-05 -3.493176446555e+05 -3.493423712385e+05 -1.290726825894e-05 7.235575391650e-15 1.256110413372e-09 0.000000000000e+00 0.000000000000e+00 
2.000000000000e+00 1.000000000000e+01 0.000000000000e+00 2.987640169622e+02 5.564211314184e-05 0.000000000000e+00 -6.034188266979e+05 1.363443933476e-05 -3.493078347172e+05 -3.493387429179e+05 -1.290726825602e-05 1.385259036411e-15 1.570136596487e-09 0.000000000000e+00 0.000000000000e+00 
3.000000000000e+00 9.000000000000e+00 0.000000000000e+00 2.980778512071e+02 3.915362361122e-05 -1.413120688045e-09 -6.034224550878e+05 1.030934149959e-05 -2.083246812890e+05 -2.083494078831e+05 -2.006971079800e-05 1.047429096359e-15 1.256110981507e-09 0.000000000000e+00 0.000000000000e+00 
3.000000000000e+00 1.000000000000e+01 0.000000000000e+00 2.980778512055e+02 3.915362361141e-05 0.000000000000e+00 -6.034188265400e+05 -2.982507361262e-07 -2.083148711237e+05 -2.083457791870e+05 -2.006971080553e-05 -3.030227479042e-17 1.570129615049e-09 0.000000000000e+00 0.000000000000e+00 
4.000000000000e+00 9.000000000000e+00 0.000000000000e+00 2.981304135983e+02 1.935824529420e-05 -1.413122714611e-09 -6.034224550615e+05 -6.225134363751e-05 -2.191251726638e+05 -2.191498992330e+05 -1.952104583609e-05 -6.324736513571e-15 1.256109713436e-09 0.000000000000e+00 0.000000000000e+00 
4.000000000000e+00 1.000000000000e+01 0.000000000000e+00 2.981304135985e+02 1.935824529245e-05 0.000000000000e+00 -6.034188266812e+05 -1.023912365250e-05 -2.191153627284e+05 -2.191462709133e+05 -1.952104583301e-05 -1.040294963094e-15 1.570135788579e-09 0.000000000000e+00 0.000000000000e+00 
5.000000000000e+00 9.000000000000e+00 0.000000000000e+00 2.981616063538e+02 3.244152522641e-15 -1.413124147277e-09 -6.034224550809e+05 -6.641818197285e-06 -2.255346429467e+05 -2.255593695336e+05 -1.919544474580e-05 -6.748087288442e-16 1.256110613404e-09 0.000000000000e+00 0.000000000000e+00 
5.000000000000e+00 1.000000000000e+01 0.000000000000e+00 2.981616063538e+02 3.013567160457e-15 0.000000000000e+00 -6.034188267240e+05 5.998038154453e-07 -2.255248329627e+05 -2.255557411896e+05 -1.919544474515e-05 6.094006764924e-17 1.570137927394e-09 0.000000000000e+00 0.000000000000e+00 
0.000000000000e+00 8.000000000000e+00 0.000000000000e+00 3.080000000000e+02 0.000000000000e+00 -2.512219802169e-09 -6.034260833943e+05 -2.399890922084e-07 -2.247132188516e+06 -2.247150733415e+06 8.350121222105e-05 -2.438289176838e-17 9.420808758060e-10 0.000000000000e+00 0.000000000000e+00 
1.000000000000e+00 8.000000000000e+00 0.000000000000e+00 3.019496152392e+02 5.192317668937e-05 -2.512219720110e-09 -6.034260833695e+05 5.186068384890e-06 -1.003902443172e+06 -1.003920988052e+06 2.034514115787e-05 5.269045479048e-16 9.420799139513e-10 0.000000000000e+00 0.000000000000e+00 
2.000000000000e+00 8.000000000000e+00 0.000000000000e+00 2.987640169616e+02 5.564211313781e-05 -2.512219412751e-09 -6.034260833953e+05 4.411049931138e-06 -3.493274545976e+05 -3.493459995050e+05 -1.290726826163e-05 4.481626730036e-16 9.420812923892e-10 0.000000000000e+00 0.000000000000e+00 
3.000000000000e+00 8.000000000000e+00 0.000000000000e+00 2.980778512081e+02 3.915362361105e-05 -2.512219549098e-09 -6.034260835353e+05 -1.283182420560e-05 -2.083344914246e+05 -2.083530364558e+05 -2.006971079164e-05 -1.303713339289e-15 9.420875861656e-10 0.000000000000e+00 0.000000000000e+00 
4.000000000000e+00 8.000000000000e+00 0.000000000000e+00 2.981304135985e+02 1.935824529614e-05 -2.512220339981e-09 -6.034260834830e+05 -1.363640517049e-05 -2.191349826371e+05 -2.191535276262e+05 -1.952104583753e-05 -1.385458765322e-15 9.420854465907e-10 0.000000000000e+00 0.000000000000e+00 
5.000000000000e+00 8.000000000000e+00 0.000000000000e+00 2.981616063534e+02 3.552688304755e-15 -2.512220661622e-09 -6.034260834139e+05 -6.210808731892e-07 -2.255444528951e+05 -2.255629978204e+05 -1.919544474815e-05 -6.310181671602e-17 9.420822078056e-10 0.000000000000e+00 0.000000000000e+00 
0.000000000000e+00 7.000000000000e+00 0.000000000000e+00 3.080000000000e+02 0.000000000000e+00 -3.297287530511e-09 -6.034297117707e+05 2.733115023403e-06 -2.247141998491e+06 -2.247154361770e+06 8.350121221996e-05 2.776844863777e-16 6.280545586679e-10 0.000000000000e+00 0.000000000000e+00 
1.000000000000e+00 7.000000000000e+00 0.000000000000e+00 3.019496152396e+02 5.192317668914e-05 -3.297287397677e-09 -6.034297117864e+05 1.011946887746e-06 -1.003912253182e+06 -1.003924616476e+06 2.034514115821e-05 1.028138037950e-16 6.280553163300e-10 0.000000000000e+00 0.000000000000e+00 
2.000000000000e+00 7.000000000000e+00 0.000000000000e+00 2.987640169622e+02 5.564211313898e-05 -3.297288092931e-09 -6.034297118027e+05 -3.644125892340e-05 -3.493372646676e+05 -3.493496279750e+05 -1.290726825845e-05 -3.702431906617e-15 6.280560194587e-10 0.000000000000e+00 0.000000000000e+00 
3.000000000000e+00 7.000000000000e+00 0.000000000000e+00 2.980778512071e+02 3.915362361225e-05 -3.297289923982e-09 -6.034297117480e+05 -2.698285776786e-05 -2.083443013485e+05 -2.083566646041e+05 -2.006971079491e-05 -2.741458349215e-15 6.280533836599e-10 0.000000000000e+00 0.000000000000e+00 
4.000000000000e+00 7.000000000000e+00 0.000000000000e+00 2.981304135980e+02 1.935824529573e-05 -3.297289997645e-09 -6.034297117597e+05 1.799783618976e-05 -2.191447926211e+05 -2.191571558886e+05 -1.952104583825e-05 1.828580156879e-15 6.280539873490e-10 0.000000000000e+00 0.000000000000e+00 
5.000000000000e+00 7.000000000000e+00 0.000000000000e+00 2.981616063537e+02 3.420115141396e-15 -3.297289361250e-09 -6.034297117810e+05 4.386147784626e-06 -2.255542629362e+05 -2.255666262238e+05 -1.919544474631e-05 4.456326149180e-16 6.280550085007e-10 0.000000000000e+00 0.000000000000e+00 
0.000000000000e+00 6.000000000000e+00 0.000000000000e+00 3.080000000000e+02 0.000000000000e+00 -3.768328569620e-09 -6.034333401358e+05 1.191643826940e-06 -2.247151808484e+06 -2.247157990127e+06 8.350121221953e-05 1.210710128171e-16 3.140274376765e-10 0.000000000000e+00 0.000000000000e+00 
1.000000000000e+00 6.000000000000e+00 0.000000000000e+00 3.019496152396e+02 5.192317668941e-05 -3.768328609029e-09 -6.034333401313e+05 -4.787096068256e-06 -1.003922063205e+06 -1.003928244842e+06 2.034514115931e-05 -4.863689605348e-16 3.140271811869e-10 0.000000000000e+00 0.000000000000e+00 
2.000000000000e+00 6.000000000000e+00 0.000000000000e+00 2.987640169620e+02 5.564211314017e-05 -3.768329222982e-09 -6.034333401161e+05 -2.021733985431e-05 -3.493470746793e+05 -3.493532563019e+05 -1.290726825776e-05 -2.054081729198e-15 3.140264294634e-10 0.000000000000e+00 0.000000000000e+00 
3.000000000000e+00 6.000000000000e+00 0.000000000000e+00 2.980778512070e+02 3.915362361300e-05 -3.768330115164e-09 -6.034333401215e+05 -9.136340605895e-06 -2.083541113157e+05 -2.083602929447e+05 -2.006971079658e-05 -9.282522055590e-16 3.140267562092e-10 0.000000000000e+00 0.000000000000e+00 
4.000000000000e+00 6.000000000000e+00 0.000000000000e+00 2.981304135980e+02 1.935824529539e-05 -3.768330090479e-09 -6.034333401077e+05 5.510403424148e-06 -2.191546026115e+05 -2.191607842272e+05 -1.952104583873e-05 5.598569878934e-16 3.140260767002e-10 0.000000000000e+00 0.000000000000e+00 
5.000000000000e+00 6.000000000000e+00 0.000000000000e+00 2.981616063537e+02 3.392454119534e-15 -3.768330038803e-09 -6.034333401176e+05 -3.747391906151e-06 -2.255640729562e+05 -2.255702545802e+05 -1.919544474530e-05 -3.807350176650e-16 3.140264973055e-10 0.000000000000e+00 0.000000000000e+00 
0.000000000000e+00 5.000000000000e+00 0.000000000000e+00 3.080000000000e+02 0.000000000000e+00 -3.925342377258e-09 -6.034369684973e+05 6.346733755506e-07 -2.247161618478e+06 -2.247161618483e+06 8.350121221925e-05 6.448281495594e-17 2.201850736483e-16 0.000000000000e+00 0.000000000000e+00 
1.000000000000e+00 5.000000000000e+00 0.000000000000e+00 3.019496152397e+02 5.192317668951e-05 -3.925342364820e-09 -6.034369685014e+05 -5.394948774564e-07 -1.003931873213e+06 -1.003931873221e+06 2.034514115973e-05 -5.481267954957e-17 3.782050042297e-16 0.000000000000e+00 0.000000000000e+00 
2.000000000000e+00 5.000000000000e+00 0.000000000000e+00 2.987640169623e+02 5.564211314087e-05 -3.925342552362e-09 -6.034369684978e+05 -6.576354191301e-06 -3.493568846977e+05 -3.493568847013e+05 -1.290726825686e-05 -6.681575858362e-16 1.856866077658e-16 0.000000000000e+00 0.000000000000e+00 
3.000000000000e+00 5.000000000000e+00 0.000000000000e+00 2.980778512068e+02 3.915362361334e-05 -3.925342871760e-09 -6.034369684659e+05 -3.819959952074e-06 -2.083639212806e+05 -2.083639212556e+05 -2.006971079828e-05 -3.881079311307e-16 -1.270154179283e-15 0.000000000000e+00 0.000000000000e+00 
4.000000000000e+00 5.000000000000e+00 0.000000000000e+00 2.981304135981e+02 1.935824529521e-05 -3.925342900961e-09 -6.034369684849e+05 1.619255225867e-06 -2.191644126260e+05 -2.191644126173e+05 -1.952104583808e-05 1.645163309481e-16 -4.418954938899e-16 0.000000000000e+00 0.000000000000e+00 
5.000000000000e+00 5.000000000000e+00 0.000000000000e+00 2.981616063537e+02 3.689551494761e-15 -3.925342984621e-09 -6.034369684802e+05 -6.545083117073e-06 -2.255738829641e+05 -2.255738829512e+05 -1.919544474488e-05 -6.649804446946e-16 -6.551819231285e-16 0.000000000000e+00 0.000000000000e+00 
0.000000000000e+00 4.000000000000e+00 0.000000000000e+00 3.080000000000e+02 0.000000000000e+00 -3.768328857384e-09 -6.034405968543e+05 -4.274546836131e-08 -2.247171428478e+06 -2.247165246839e+06 8.350121221922e-05 -4.342939585509e-18 -3.140272665995e-10 0.000000000000e+00 0.000000000000e+00 
1.000000000000e+00 4.000000000000e+00 0.000000000000e+00 3.019496152397e+02 5.192317668956e-05 -3.768328856233e-09 -6.034405968521e+05 -2.186865177907e-07 -1.003941683216e+06 -1.003935501575e+06 2.034514115993e-05 -2.221855020753e-17 -3.140273775390e-10 0.000000000000e+00 0.000000000000e+00 
2.000000000000e+00 4.000000000000e+00 0.000000000000e+00 2.987640169622e+02 5.564211314087e-05 -3.768328819402e-09 -6.034405968470e+05 3.149295212159e-06 -3.493666946872e+05 -3.493605130413e+05 -1.290726825733e-05 3.199683935553e-16 -3.140276128588e-10 0.000000000000e+00 0.000000000000e+00 
3.000000000000e+00 4.000000000000e+00 0.000000000000e+00 2.980778512071e+02 3.915362361341e-05 -3.768328679682e-09 -6.034405968558e+05 6.324275275965e-07 -2.083737312971e+05 -2.083675496596e+05 -2.006971079757e-05 6.425463680381e-17 -3.140271863004e-10 0.000000000000e+00 0.000000000000e+00 
4.000000000000e+00 4.000000000000e+00 0.000000000000e+00 2.981304135981e+02 1.935824529531e-05 -3.768328795845e-09 -6.034405968437e+05 -3.232162230633e-06 -2.191742226134e+05 -2.191680409646e+05 -1.952104583866e-05 -3.283876826323e-16 -3.140277586447e-10 0.000000000000e+00 0.000000000000e+00 
5.000000000000e+00 4.000000000000e+00 0.000000000000e+00 2.981616063539e+02 3.977786191005e-15 -3.768328980685e-09 -6.034405968533e+05 -6.150198735808e-06 -2.255836929812e+05 -2.255775113408e+05 -1.919544474403e-05 -6.248601915581e-16 -3.140273294955e-10 0.000000000000e+00 0.000000000000e+00 
0.000000000000e+00 3.000000000000e+00 0.000000000000e+00 3.080000000000e+02 0.000000000000e+00 -3.297287847827e-09 -6.034442252111e+05 -6.514216414588e-08 -2.247181238477e+06 -2.247168875195e+06 8.350121221918e-05 -6.618443877221e-18 -6.280547269058e-10 0.000000000000e+00 0.000000000000e+00 
1.000000000000e+00 3.000000000000e+00 0.000000000000e+00 3.019496152397e+02 5.192317668949e-05 -3.297287795386e-09 -6.034442252111e+05 2.491056002989e-06 -1.003951493214e+06 -1.003939129931e+06 2.034514115979e-05 2.530912899037e-16 -6.280547404119e-10 0.000000000000e+00 0.000000000000e+00 
2.000000000000e+00 3.000000000000e+00 0.000000000000e+00 2.987640169622e+02 5.564211314074e-05 -3.297287617726e-09 -6.034442252094e+05 4.146438086938e-06 -3.493765046891e+05 -3.493641414049e+05 -1.290726825726e-05 4.212781096329e-16 -6.280548371678e-10 0.000000000000e+00 0.000000000000e+00 
3.000000000000e+00 3.000000000000e+00 0.000000000000e+00 2.980778512070e+02 3.915362361332e-05 -3.297287416165e-09 -6.034442251998e+05 3.200457663887e-06 -2.083835412968e+05 -2.083711780037e+05 -2.006971079756e-05 3.251664986510e-16 -6.280552904615e-10 0.000000000000e+00 0.000000000000e+00 
4.000000000000e+00 3.000000000000e+00 0.000000000000e+00 2.981304135981e+02 1.935824529543e-05 -3.297287348456e-09 -6.034442252023e+05 -1.508087838858e-06 -2.191840326215e+05 -2.191716693312e+05 -1.952104583825e-05 -1.532217244280e-16 -6.280551471650e-10 0.000000000000e+00 0.000000000000e+00 
5.000000000000e+00 3.000000000000e+00 0.000000000000e+00 2.981616063539e+02 4.357624994986e-15 -3.297287603134e-09 -6.034442251970e+05 -7.971995693471e-06 -2.255935029829e+05 -2.255811396869e+05 -1.919544474391e-05 -8.099547624567e-16 -6.280554365348e-10 0.000000000000e+00 0.000000000000e+00 
0.000000000000e+00 2.000000000000e+00 0.000000000000e+00 3.080000000000e+02 0.000000000000e+00 -2.512219404521e-09 -6.034478535683e+05 -3.291695391420e-07 -2.247191048476e+06 -2.247172503551e+06 8.350121221913e-05 -3.344362517683e-17 -9.420821707157e-10 0.000000000000e+00 0.000000000000e+00 
1.000000000000e+00 2.000000000000e+00 0.000000000000e+00 3.019496152397e+02 5.192317668937e-05 -2.512219376054e-09 -6.034478535704e+05 1.836532630170e-06 -1.003961303210e+06 -1.003942758287e+06 2.034514115960e-05 1.865917152253e-16 -9.420820696440e-10 0.000000000000e+00 0.000000000000e+00 
2.000000000000e+00 2.000000000000e+00 0.000000000000e+00 2.987640169622e+02 5.564211314039e-05 -2.512219122940e-09 -6.034478535707e+05 9.575910856261e-06 -3.493863146842e+05 -3.493677697608e+05 -1.290726825754e-05 9.729125429961e-16 -9.420821103319e-10 0.000000000000e+00 0.000000000000e+00 
3.000000000000e+00 2.000000000000e+00 0.000000000000e+00 2.980778512070e+02 3.915362361294e-05 -2.512218497753e-09 -6.034478535611e+05 1.583450789422e-05 -2.083933513030e+05 -2.083748063707e+05 -2.006971079727e-05 1.608786002053e-15 -9.420825574741e-10 0.000000000000e+00 0.000000000000e+00 
4.000000000000e+00 2.000000000000e+00 0.000000000000e+00 2.981304135981e+02 1.935824529549e-05 -2.512218035880e-09 -6.034478535389e+05 -1.309832069881e-06 -2.191938426309e+05 -2.191752976784e+05 -1.952104583771e-05 -1.330789382999e-16 -9.420835862992e-10 0.000000000000e+00 0.000000000000e+00 
5.000000000000e+00 2.000000000000e+00 0.000000000000e+00 2.981616063539e+02 4.879469470074e-15 -2.512218581604e-09 -6.034478535607e+05 -1.634185500128e-05 -2.256033129903e+05 -2.255847680575e+05 -1.919544474356e-05 -1.660332468130e-15 -9.420825877858e-10 0.000000000000e+00 0.000000000000e+00 
0.000000000000e+00 1.000000000000e+00 0.000000000000e+00 3.080000000000e+02 0.000000000000e+00 -1.413123444531e-09 -6.034514819226e+05 4.636635149184e-07 -2.247200858478e+06 -2.247176131907e+06 8.350121221922e-05 4.710821311571e-17 -1.256109771586e-09 0.000000000000e+00 0.000000000000e+00 
1.000000000000e+00 1.000000000000e+00 0.000000000000e+00 3.019496152397e+02 5.192317668937e-05 -1.413123487581e-09 -6.034514819224e+05 -4.208342403590e-06 -1.003971113207e+06 -1.003946386637e+06 2.034514115951e-05 -4.275675882047e-16 -1.256109758298e-09 0.000000000000e+00 0.000000000000e+00 
2.000000000000e+00 1.000000000000e+00 0.000000000000e+00 2.987640169622e+02 5.564211313995e-05 -1.413123535981e-09 -6.034514819387e+05 6.858622768258e-06 -3.493961246672e+05 -3.493713981128e+05 -1.290726825836e-05 6.968360732550e-16 -1.256108966554e-09 0.000000000000e+00 0.000000000000e+00 
3.000000000000e+00 1.000000000000e+00 0.000000000000e+00 2.980778512071e+02 3.915362361202e-05 -1.413122799740e-09 -6.034514819408e+05 2.005379211694e-05 -2.084031612970e+05 -2.083784347449e+05 -2.006971079755e-05 2.037465279081e-15 -1.256108846847e-09 0.000000000000e+00 0.000000000000e+00 
4.000000000000e+00 1.000000000000e+00 0.000000000000e+00 2.981304135986e+02 1.935824529549e-05 -1.413122220021e-09 -6.034514819591e+05 2.429150730628e-06 -2.192036526800e+05 -2.191789261438e+05 -1.952104583541e-05 2.468017142318e-16 -1.256108037519e-09 0.000000000000e+00 0.000000000000e+00 
5.000000000000e+00 1.000000000000e+00 0.000000000000e+00 2.981616063539e+02 5.699609152971e-15 -1.413122564669e-09 -6.034514819278e+05 -1.322532391285e-05 -2.256131229788e+05 -2.255883964141e+05 -1.919544474410e-05 -1.343692909546e-15 -1.256109487493e-09 0.000000000000e+00 0.000000000000e+00 
0.000000000000e+00 0.000000000000e+00 0.000000000000e+00 3.080000000000e+02 0.000000000000e+00 0.000000000000e+00 -6.034551102829e+05 5.112403627265e-07 -2.247210668474e+06 -2.247179760264e+06 8.350121221902e-05 5.194202085302e-17 -1.570137101845e-09 0.000000000000e+00 0.000000000000e+00 
1.000000000000e+00 0.000000000000e+00 0.000000000000e+00 3.019496152398e+02 5.192317668955e-05 0.000000000000e+00 -6.034551102809e+05 -2.001062896753e-06 -1.003980923221e+06 -1.003950015008e+06 2.034514116014e-05 -2.033079903102e-16 -1.570137207584e-09 0.000000000000e+00 0.000000000000e+00 
2.000000000000e+00 0.000000000000e+00 0.000000000000e+00 2.987640169619e+02 5.564211313979e-05 0.000000000000e+00 -6.034551102575e+05 -2.295595873640e-07 -3.494059346370e+05 -3.493750264042e+05 -1.290726825975e-05 -2.332325407618e-17 -1.570138223402e-09 0.000000000000e+00 0.000000000000e+00 
3.000000000000e+00 0.000000000000e+00 0.000000000000e+00 2.980778512072e+02 3.915362361153e-05 0.000000000000e+00 -6.034551102905e+05 1.221547302224e-06 -2.084129713111e+05 -2.083820631078e+05 -2.006971079688e-05 1.241092059059e-16 -1.570136727658e-09 0.000000000000e+00 0.000000000000e+00 
4.000000000000e+00 0.000000000000e+00 0.000000000000e+00 2.981304135985e+02 1.935824529536e-05 0.000000000000e+00 -6.034551102998e+05 1.193801562447e-06 -2.192134626809e+05 -2.191825544861e+05 -1.952104583533e-05 1.212902387446e-16 -1.570136293685e-09 0.000000000000e+00 0.000000000000e+00 
5.000000000000e+00 0.000000000000e+00 0.000000000000e+00 2.981616063541e+02 5.933411665584e-15 0.000000000000e+00 -6.034551103137e+05 1.053570376965e-06 -2.256229329935e+05 -2.255920248126e+05 -1.919544474346e-05 1.070427502997e-16 -1.570135588443e-09 0.000000000000e+00 0.000000000000e+00 
6.000000000000e+00 9.000000000000e+00 0.000000000000e+00 2.981304135984e+02 -1.935824528715e-05 -1.413124101777e-09 -6.034224550664e+05 -1.006763414144e-06 -2.191251726860e+05 -2.191498992603e+05 -1.952104583495e-05 -1.022871628770e-16 1.256109972959e-09 0.000000000000e+00 0.000000000000e+00 
6.000000000000e+00 1.000000000000e+01 0.000000000000e+00 2.981304135985e+02 -1.935824528718e-05 0.000000000000e+00 -6.034188267251e+05 -1.081872442620e-07 -2.191153626787e+05 -2.191462709109e+05 -1.952104583536e-05 -1.099182401702e-17 1.570138193336e-09 0.000000000000e+00 0.000000000000e+00 
7.000000000000e+00 9.000000000000e+00 0.000000000000e+00 2.980778512070e+02 -3.915362360383e-05 -1.413124321266e-09 -6.034224550866e+05 4.762148076042e-06 -2.083246812787e+05 -2.083494078719e+05 -2.006971079851e-05 4.838342445258e-16 1.256110932748e-09 0.000000000000e+00 0.000000000000e+00 
7.000000000000e+00 1.000000000000e+01 0.000000000000e+00 2.980778512071e+02 -3.915362360363e-05 0.000000000000e+00 -6.034188267168e+05 3.505049137835e-06 -2.083148713015e+05 -2.083457795249e+05 -2.006971079735e-05 3.561129924040e-16 1.570137750425e-09 0.000000000000e+00 0.000000000000e+00 
8.000000000000e+00 9.000000000000e+00 0.000000000000e+00 2.987640169617e+02 -5.564211313512e-05 -1.413124356759e-09 -6.034224550887e+05 -2.834315380741e-05 -3.493176445570e+05 -3.493423711521e+05 -1.290726826398e-05 -2.879664426832e-15 1.256111027000e-09 0.000000000000e+00 0.000000000000e+00 
8.000000000000e+00 1.000000000000e+01 0.000000000000e+00 2.987640169611e+02 -5.564211313602e-05 0.000000000000e+00 -6.034188267024e+05 -5.791810308772e-06 -3.493078344729e+05 -3.493387426890e+05 -1.290726826788e-05 -5.884479273712e-16 1.570137374253e-09 0.000000000000e+00 0.000000000000e+00 
9.000000000000e+00 9.000000000000e+00 0.000000000000e+00 3.019496152395e+02 -5.192317668824e-05 -1.413126242294e-09 -6.034224550720e+05 -2.199809791534e-05 -1.003892633172e+06 -1.003917359751e+06 2.034514115770e-05 -2.235006748199e-15 1.256110224261e-09 0.000000000000e+00 0.000000000000e+00 
9.000000000000e+00 1.000000000000e+01 0.000000000000e+00 3.019496152404e+02 -5.192317668891e-05 0.000000000000e+00 -6.034188268193e+05 -3.251299193832e-06 -1.003882823269e+06 -1.003913731588e+06 2.034514116225e-05 -3.303319980934e-16 1.570142590422e-09 0.000000000000e+00 0.000000000000e+00 
1.000000000000e+01 9.000000000000e+00 0.000000000000e+00 3.080000000000e+02 0.000000000000e+00 -1.413126055152e-09 -6.034224550819e+05 1.156619782864e-05 -2.247122378470e+06 -2.247147105058e+06 8.350121221880e-05 1.175125699390e-15 1.256110687772e-09 0.000000000000e+00 0.000000000000e+00 
1.000000000000e+01 1.000000000000e+01 0.000000000000e+00 3.080000000000e+02 0.000000000000e+00 0.000000000000e+00 -6.034188267857e+05 3.771526946517e-06 -2.247112568406e+06 -2.247143476701e+06 8.350121221570e-05 3.831871377661e-16 1.570141367152e-09 0.000000000000e+00 0.000000000000e+00 
6.000000000000e+00 8.000000000000e+00 0.000000000000e+00 2.981304135987e+02 -1.935824528708e-05 -2.512220689469e-09 -6.034260834400e+05 -5.915620082603e-07 -2.191349827252e+05 -2.191535276705e+05 -1.952104583309e-05 -6.010270003924e-17 9.420832237285e-10 0.000000000000e+00 0.000000000000e+00 
7.000000000000e+00 8.000000000000e+00 0.000000000000e+00 2.980778512067e+02 -3.915362360370e-05 -2.512220863773e-09 -6.034260834136e+05 -6.564745283651e-06 -2.083344912435e+05 -2.083530361658e+05 -2.006971080019e-05 -6.669781208190e-16 9.420820529050e-10 0.000000000000e+00 0.000000000000e+00 
8.000000000000e+00 8.000000000000e+00 0.000000000000e+00 2.987640169620e+02 -5.564211313420e-05 -2.512221316309e-09 -6.034260834442e+05 -1.172605716573e-05 -3.493274546266e+05 -3.493459995731e+05 -1.290726826065e-05 -1.191367408038e-15 9.420832790194e-10 0.000000000000e+00 0.000000000000e+00 
9.000000000000e+00 8.000000000000e+00 0.000000000000e+00 3.019496152389e+02 -5.192317668753e-05 -2.512221803593e-09 -6.034260833813e+05 -4.786813960182e-06 -1.003902443096e+06 -1.003920987988e+06 2.034514115401e-05 -4.863402983545e-16 9.420805310947e-10 0.000000000000e+00 0.000000000000e+00 
1.000000000000e+01 8.000000000000e+00 0.000000000000e+00 3.080000000000e+02 0.000000000000e+00 -2.512221847677e-09 -6.034260833962e+05 1.004686229630e-06 -2.247132188512e+06 -2.247150733415e+06 8.350121222093e-05 1.020761209304e-16 9.420810279512e-10 0.000000000000e+00 0.000000000000e+00 
6.000000000000e+00 7.000000000000e+00 0.000000000000e+00 2.981304135985e+02 -1.935824528699e-05 -3.297289608834e-09 -6.034297117735e+05 -4.463010507241e-06 -2.191447926939e+05 -2.191571559747e+05 -1.952104583458e-05 -4.534418675357e-16 6.280546668495e-10 0.000000000000e+00 0.000000000000e+00 
7.000000000000e+00 7.000000000000e+00 0.000000000000e+00 2.980778512070e+02 -3.915362360335e-05 -3.297289691887e-09 -6.034297117940e+05 -6.623975271357e-06 -2.083443012883e+05 -2.083566645876e+05 -2.006971079808e-05 -6.729958875698e-16 6.280556042630e-10 0.000000000000e+00 0.000000000000e+00 
8.000000000000e+00 7.000000000000e+00 0.000000000000e+00 2.987640169616e+02 -5.564211313395e-05 -3.297290110069e-09 -6.034297117670e+05 1.466709380200e-07 -3.493372645729e+05 -3.493496278478e+05 -1.290726826309e-05 1.490176730284e-17 6.280543659713e-10 0.000000000000e+00 0.000000000000e+00 
9.000000000000e+00 7.000000000000e+00 0.000000000000e+00 3.019496152393e+02 -5.192317668765e-05 -3.297289752251e-09 -6.034297117870e+05 6.168392417480e-06 -1.003912253132e+06 -1.003924616426e+06 2.034514115564e-05 6.267086696160e-16 6.280553113199e-10 0.000000000000e+00 0.000000000000e+00 
1.000000000000e+01 7.000000000000e+00 0.000000000000e+00 3.080000000000e+02 0.000000000000e+00 -3.297289799127e-09 -6.034297117766e+05 -2.908806087804e-06 -2.247141998486e+06 -2.247154361770e+06 8.350121221967e-05 -2.955346985208e-16 6.280548221965e-10 0.000000000000e+00 0.000000000000e+00 
6.000000000000e+00 6.000000000000e+00 0.000000000000e+00 2.981304135984e+02 -1.935824528663e-05 -3.768330398922e-09 -6.034333401239e+05 -9.797542602752e-06 -2.191546026922e+05 -2.191607843229e+05 -1.952104583469e-05 -9.954303284396e-16 3.140268393636e-10 0.000000000000e+00 0.000000000000e+00 
7.000000000000e+00 6.000000000000e+00 0.000000000000e+00 2.980778512069e+02 -3.915362360308e-05 -3.768330805039e-09 -6.034333401224e+05 -5.444922362590e-06 -2.083541112843e+05 -2.083602929133e+05 -2.006971079822e-05 -5.532041120392e-16 3.140267523135e-10 0.000000000000e+00 0.000000000000e+00 
8.000000000000e+00 6.000000000000e+00 0.000000000000e+00 2.987640169616e+02 -5.564211313396e-05 -3.768330938587e-09 -6.034333401290e+05 -2.926814890446e-07 -3.493470745647e+05 -3.493532562010e+05 -1.290726826354e-05 -2.973643928693e-17 3.140271223876e-10 0.000000000000e+00 0.000000000000e+00 
9.000000000000e+00 6.000000000000e+00 0.000000000000e+00 3.019496152393e+02 -5.192317668777e-05 -3.768330930617e-09 -6.034333401309e+05 7.887618675611e-07 -1.003922063138e+06 -1.003928244775e+06 2.034514115591e-05 8.013820574421e-17 3.140271752050e-10 0.000000000000e+00 0.000000000000e+00 
1.000000000000e+01 6.000000000000e+00 0.000000000000e+00 3.080000000000e+02 0.000000000000e+00 -3.768330899226e-09 -6.034333401334e+05 3.600498399468e-07 -2.247151808486e+06 -2.247157990127e+06 8.350121221965e-05 3.658106373859e-17 3.140273236540e-10 0.000000000000e+00 0.000000000000e+00 
6.000000000000e+00 5.000000000000e+00 0.000000000000e+00 2.981304135984e+02 -1.935824528611e-05 -3.925343508555e-09 -6.034369684817e+05 -1.238249046103e-05 -2.191644126907e+05 -2.191644126793e+05 -1.952104583476e-05 -1.258061030841e-15 -5.757306152945e-16 0.000000000000e+00 0.000000000000e+00 
7.000000000000e+00 5.000000000000e+00 0.000000000000e+00 2.980778512069e+02 -3.915362360274e-05 -3.925344015065e-09 -6.034369684855e+05 -8.164872233456e-06 -2.083639212788e+05 -2.083639212711e+05 -2.006971079849e-05 -8.295510189191e-16 -3.906781644642e-16 0.000000000000e+00 0.000000000000e+00 
8.000000000000e+00 5.000000000000e+00 0.000000000000e+00 2.987640169616e+02 -5.564211313384e-05 -3.925344309826e-09 -6.034369684869e+05 -3.706265832687e-06 -3.493568845621e+05 -3.493568845558e+05 -1.290726826370e-05 -3.765566086010e-16 -3.205938230354e-16 0.000000000000e+00 0.000000000000e+00 
9.000000000000e+00 5.000000000000e+00 0.000000000000e+00 3.019496152393e+02 -5.192317668776e-05 -3.925344412934e-09 -6.034369684885e+05 -9.077762117465e-07 -1.003931873136e+06 -1.003931873131e+06 2.034514115585e-05 -9.223006311344e-17 -2.402127512178e-16 0.000000000000e+00 0.000000000000e+00 
1.000000000000e+01 5.000000000000e+00 0.000000000000e+00 3.080000000000e+02 0.000000000000e+00 -3.925344432619e-09 -6.034369684890e+05 1.593606014001e-09 -2.247161618487e+06 -2.247161618483e+06 8.350121221968e-05 1.619103710225e-19 -2.153335039917e-16 0.000000000000e+00 0.000000000000e+00 
6.000000000000e+00 4.000000000000e+00 0.000000000000e+00 2.981304135985e+02 -1.935824528550e-05 -3.768329461887e-09 -6.034405968486e+05 -1.159996051298e-05 -2.191742226883e+05 -2.191680410440e+05 -1.952104583488e-05 -1.178555988119e-15 -3.140275340572e-10 0.000000000000e+00 0.000000000000e+00 
7.000000000000e+00 4.000000000000e+00 0.000000000000e+00 2.980778512069e+02 -3.915362360230e-05 -3.768329996131e-09 -6.034405968466e+05 -9.001984623644e-06 -2.083737312736e+05 -2.083675496271e+05 -2.006971079875e-05 -9.146016377623e-16 -3.140276393087e-10 0.000000000000e+00 0.000000000000e+00 
8.000000000000e+00 4.000000000000e+00 0.000000000000e+00 2.987640169615e+02 -5.564211313362e-05 -3.768330327888e-09 -6.034405968464e+05 -4.442245561524e-06 -3.493666945585e+05 -3.493605129116e+05 -1.290726826389e-05 -4.513321490508e-16 -3.140276602674e-10 0.000000000000e+00 0.000000000000e+00 
9.000000000000e+00 4.000000000000e+00 0.000000000000e+00 3.019496152393e+02 -5.192317668770e-05 -3.768330466628e-09 -6.034405968467e+05 -1.291177691024e-06 -1.003941683134e+06 -1.003935501487e+06 2.034514115574e-05 -1.311836534080e-16 -3.140276408266e-10 0.000000000000e+00 0.000000000000e+00 
1.000000000000e+01 4.000000000000e+00 0.000000000000e+00 3.080000000000e+02 0.000000000000e+00 -3.768330486304e-09 -6.034405968458e+05 1.494625296054e-07 -2.247171428486e+06 -2.247165246839e+06 8.350121221964e-05 1.518539300791e-17 -3.140276789895e-10 0.000000000000e+00 0.000000000000e+00 
6.000000000000e+00 3.000000000000e+00 0.000000000000e+00 2.981304135985e+02 -1.935824528497e-05 -3.297288109490e-09 -6.034442252025e+05 -1.140458687807e-05 -2.191840326915e+05 -2.191716694007e+05 -1.952104583473e-05 -1.158706026812e-15 -6.280551704645e-10 0.000000000000e+00 0.000000000000e+00 
7.000000000000e+00 3.000000000000e+00 0.000000000000e+00 2.980778512069e+02 -3.915362360182e-05 -3.297288684812e-09 -6.034442252059e+05 -1.123111221493e-05 -2.083835412692e+05 -2.083711779818e+05 -2.006971079898e-05 -1.141081001037e-15 -6.280549968308e-10 0.000000000000e+00 0.000000000000e+00 
8.000000000000e+00 3.000000000000e+00 0.000000000000e+00 2.987640169616e+02 -5.564211313341e-05 -3.297289081788e-09 -6.034442252103e+05 -3.464073554417e-06 -3.493765045533e+05 -3.493641412699e+05 -1.290726826417e-05 -3.519498731288e-16 -6.280547994822e-10 0.000000000000e+00 0.000000000000e+00 
9.000000000000e+00 3.000000000000e+00 0.000000000000e+00 3.019496152393e+02 -5.192317668769e-05 -3.297289072239e-09 -6.034442252024e+05 2.069195800094e-06 -1.003951493131e+06 -1.003939129841e+06 2.034514115563e-05 2.102302932896e-16 -6.280551520102e-10 0.000000000000e+00 0.000000000000e+00 
1.000000000000e+01 3.000000000000e+00 0.000000000000e+00 3.080000000000e+02 0.000000000000e+00 -3.297289033525e-09 -6.034442252005e+05 7.974768202811e-08 -2.247181238487e+06 -2.247168875195e+06 8.350121221971e-05 8.102364494056e-18 -6.280552533696e-10 0.000000000000e+00 0.000000000000e+00 
6.000000000000e+00 2.000000000000e+00 0.000000000000e+00 2.981304135985e+02 -1.935824528431e-05 -2.512219287484e-09 -6.034478535633e+05 -1.406795800676e-05 -2.191938426910e+05 -2.191752977609e+05 -1.952104583476e-05 -1.429304533487e-15 -9.420824513230e-10 0.000000000000e+00 0.000000000000e+00 
7.000000000000e+00 2.000000000000e+00 0.000000000000e+00 2.980778512069e+02 -3.915362360124e-05 -2.512219934528e-09 -6.034478535630e+05 -1.118209190256e-05 -2.083933512672e+05 -2.083748063366e+05 -2.006971079910e-05 -1.136100537300e-15 -9.420824705966e-10 0.000000000000e+00 0.000000000000e+00 
8.000000000000e+00 2.000000000000e+00 0.000000000000e+00 2.987640169614e+02 -5.564211313332e-05 -2.512220226906e-09 -6.034478535538e+05 1.114512856019e-06 -3.493863145356e+05 -3.493677695964e+05 -1.290726826503e-05 1.132345061715e-16 -9.420829113981e-10 0.000000000000e+00 0.000000000000e+00 
9.000000000000e+00 2.000000000000e+00 0.000000000000e+00 3.019496152393e+02 -5.192317668784e-05 -2.512220028254e-09 -6.034478535525e+05 3.537352602856e-06 -1.003961303138e+06 -1.003942758197e+06 2.034514115596e-05 3.593950244502e-16 -9.420829600600e-10 0.000000000000e+00 0.000000000000e+00 
1.000000000000e+01 2.000000000000e+00 0.000000000000e+00 3.080000000000e+02 0.000000000000e+00 -2.512220008219e-09 -6.034478535566e+05 -9.811220193047e-07 -2.247191048488e+06 -2.247172503551e+06 8.350121221973e-05 -9.968199716135e-17 -9.420827871223e-10 0.000000000000e+00 0.000000000000e+00 
6.000000000000e+00 1.000000000000e+00 0.000000000000e+00 2.981304135985e+02 -1.935824528363e-05 -1.413123204970e-09 -6.034514819236e+05 -1.409065273967e-05 -2.192036526930e+05 -2.191789261238e+05 -1.952104583463e-05 -1.431610318350e-15 -1.256109718006e-09 0.000000000000e+00 0.000000000000e+00 
7.000000000000e+00 1.000000000000e+00 0.000000000000e+00 2.980778512068e+02 -3.915362360077e-05 -1.413123799059e-09 -6.034514819221e+05 -1.017841353964e-05 -2.084031612557e+05 -2.083784346850e+05 -2.006971079964e-05 -1.034126815628e-15 -1.256109787242e-09 0.000000000000e+00 0.000000000000e+00 
8.000000000000e+00 1.000000000000e+00 0.000000000000e+00 2.987640169614e+02 -5.564211313344e-05 -1.413123999983e-09 -6.034514819277e+05 3.667849235908e-06 -3.493961245220e+05 -3.493713979567e+05 -1.290726826573e-05 3.726534823682e-16 -1.256109517378e-09 0.000000000000e+00 0.000000000000e+00 
9.000000000000e+00 1.000000000000e+00 0.000000000000e+00 3.019496152394e+02 -5.192317668800e-05 -1.413123694057e-09 -6.034514819238e+05 5.147338817337e-06 -1.003971113151e+06 -1.003946386582e+06 2.034514115662e-05 5.229696238414e-16 -1.256109730916e-09 0.000000000000e+00 0.000000000000e+00 
1.000000000000e+01 1.000000000000e+00 0.000000000000e+00 3.080000000000e+02 0.000000000000e+00 -1.413123657010e-09 -6.034514819195e+05 -1.194314714609e-06 -2.247200858481e+06 -2.247176131907e+06 8.350121221938e-05 -1.213423750042e-16 -1.256109924389e-09 0.000000000000e+00 0.000000000000e+00 
6.000000000000e+00 0.000000000000e+00 0.000000000000e+00 2.981304135986e+02 -1.935824528320e-05 0.000000000000e+00 -6.034551102905e+05 -1.850177682806e-06 -2.192134626909e+05 -2.191825544881e+05 -1.952104583476e-05 -1.879780525731e-16 -1.570136699974e-09 0.000000000000e+00 0.000000000000e+00 
7.000000000000e+00 0.000000000000e+00 0.000000000000e+00 2.980778512068e+02 -3.915362360044e-05 0.000000000000e+00 -6.034551102664e+05 -1.732463437384e-06 -2.084129712529e+05 -2.083820630272e+05 -2.006971079975e-05 -1.760182852383e-16 -1.570137865572e-09 0.000000000000e+00 0.000000000000e+00 
8.000000000000e+00 0.000000000000e+00 0.000000000000e+00 2.987640169612e+02 -5.564211313352e-05 0.000000000000e+00 -6.034551102521e+05 4.138043544593e-07 -3.494059345046e+05 -3.493750262656e+05 -1.290726826652e-05 4.204252241306e-17 -1.570138544772e-09 0.000000000000e+00 0.000000000000e+00 
9.000000000000e+00 0.000000000000e+00 0.000000000000e+00 3.019496152394e+02 -5.192317668819e-05 0.000000000000e+00 -6.034551102729e+05 1.520161747264e-06 -1.003980923162e+06 -1.003950014941e+06 2.034514115715e-05 1.544484335220e-16 -1.570137626132e-09 0.000000000000e+00 0.000000000000e+00 
1.000000000000e+01 0.000000000000e+00 0.000000000000e+00 3.080000000000e+02 0.000000000000e+00 0.000000000000e+00 -6.034551102777e+05 -1.085481721438e-07 -2.247210668480e+06 -2.247179760264e+06 8.350121221929e-05 -1.102849428981e-17 -1.570137371892e-09 0.000000000000e+00 0.000000000000e+00 
1  2  3  4  
4  3  5  6  
6  5  7  8  
8  7  9  10  
10  9  11  12  
2  13  14  3  
3  14  15  5  
5  15  16  7  
7  16  17  9  
9  17  18  11  
13  19  20  14  
14  20  21  15  
15  21  22  16  
16  22  23  17  
17  23  24  18  
19  25  26  20  
20  26  27  21  
21  27  28  22  
22  28  29  23  
23  29  30  24  
25  31  32  26  
26  32  33  27  
27  33  34  28  
28  34  35  29  
29  35  36  30  
31  37  38  32  
32  38  39  33  
33  39  40  34  
34  40  41  35  
35  41  42  36  
37  43  44  38  
38  44  45  39  
39  45  46  40  
40  46  47  41  
41  47  48  42  
43  49  50  44  
44  50  51  45  
45  51  52  46  
46  52  53  47  
47  53  54  48  
49  55  56  50  
50  56  57  51  
51  57  58  52  
52  58  59  53  
53  59  60  54  
55  61  62  56  
56  62  63  57  
57  63  64  58  
58  64  65  59  
59  65  66  60  
12  11  67  68  
68  67  69  70  
70  69  71  72  
72  71  73  74  
74  73  75  76  
11  18  77  67  
67  77  78  69  
69  78  79  71  
71  79  80  73  
73  80  81  75  
18  24  82  77  
77  82  83  78  
78  83  84  79  
79  84  85  80  
80  85  86  81  
24  30  87  82  
82  87  88  83  
83  88  89  84  
84  89  90  85  
85  90  91  86  
30  36  92  87  
87  92  93  88  
88  93  94  89  
89  94  95  90  
90  95  96  91  
36  42  97  92  
92  97  98  93  
93  98  99  94  
94  99  100  95  
95  100  101  96  
42  48  102  97  
97  102  103  98  
98  103  104  99  
99  104  105  100  
100  105  106  101  
48  54  107  102  
102  107  108  103  
103  108  109  104  
104  109  110  105  
105  110  111  106  
54  60  112  107  
107  112  113  108  
108  113  114  109  
109  114  115  110  
110  115  116  111  
60  66  117  112  
112  117  118  113  
113  118  119  114  
114  119  120  115  
115  120  121  116  
VARIABLES  = "X","Y","Z", "TEMPERATURE1", "DISPLACEMENT_X1", "DISPLACEMENT_Y1", "STRESS_XX", "STRESS_XY", "STRESS_YY", "STRESS_ZZ", "STRAIN_XX", "STRAIN_XY", "STRAIN_YY", "STRAIN_ZZ", "STRAIN_PLS"
ZONE T="8.000000000000e-01s", N=121, E=100, F=FEPOINT, ET=QUADRILATERAL
STRANDID=1, SOLUTIONTIME=8.000000000000e-01
0.000000000000e+00 1.000000000000e+01 0.000000000000e+00 3.080000000000e+02 0.000000000000e+00 0.000000000000e+00 -6.454123190596e+05 -1.970224893751e-06 -2.262644408072e+06 -2.262675316325e+06 8.215696026107e-05 -2.001748492051e-16 1.570139233751e-09 0.000000000000e+00 0.000000000000e+00 
0.000000000000e+00 9.000000000000e+00 0.000000000000e+00 3.080000000000e+02 0.000000000000e+00 -1.413124532071e-09 -6.454159473789e+05 -6.597921612915e-06 -2.262654218112e+06 -2.262678944682e+06 8.215696026299e-05 -6.703488358722e-16 1.256109733225e-09 0.000000000000e+00 0.000000000000e+00 
1.000000000000e+00 9.000000000000e+00 0.000000000000e+00 3.022827158635e+02 5.231743620843e-05 -1.413124800957e-09 -6.454159473744e+05 7.896321448922e-07 -1.087869806515e+06 -1.087894533081e+06 2.247791215389e-05 8.022662592105e-17 1.256109536526e-09 0.000000000000e+00 0.000000000000e+00 
1.000000000000e+00 1.000000000000e+01 0.000000000000e+00 3.022827158641e+02 5.231743620858e-05 0.000000000000e+00 -6.454123190900e+05 -5.960845300511e-07 -1.087859996562e+06 -1.087890904836e+06 2.247791215591e-05 -6.056218825319e-17 1.570140352293e-09 0.000000000000e+00 0.000000000000e+00 
2.000000000000e+00 9.000000000000e+00 0.000000000000e+00 2.990306012757e+02 5.782198318426e-05 -1.413123331408e-09 -6.454159473912e+05 7.189274257517e-05 -4.196270829688e+05 -4.196518095509e+05 -1.146881820229e-05 7.304302645637e-15 1.256110374130e-09 0.000000000000e+00 0.000000000000e+00 
2.000000000000e+00 1.000000000000e+01 0.000000000000e+00 2.990306012759e+02 5.782198318640e-05 0.000000000000e+00 -6.454123190125e+05 1.373180808650e-05 -4.196172730304e+05 -4.196481812297e+05 -1.146881819937e-05 1.395151701588e-15 1.570136521320e-09 0.000000000000e+00 0.000000000000e+00 
3.000000000000e+00 9.000000000000e+00 0.000000000000e+00 2.981352815422e+02 4.168033185213e-05 -1.413120616405e-09 -6.454159474033e+05 1.018927931080e-05 -2.356572747089e+05 -2.356820013024e+05 -2.081448446192e-05 1.035230777977e-15 1.256110951716e-09 0.000000000000e+00 0.000000000000e+00 
3.000000000000e+00 1.000000000000e+01 0.000000000000e+00 2.981352815406e+02 4.168033185231e-05 0.000000000000e+00 -6.454123188535e+05 -2.635554978896e-07 -2.356474645426e+05 -2.356783726035e+05 -2.081448446950e-05 -2.677723858558e-17 1.570129494789e-09 0.000000000000e+00 0.000000000000e+00 
4.000000000000e+00 9.000000000000e+00 0.000000000000e+00 2.981196254933e+02 2.078413568327e-05 -1.413122674514e-09 -6.454159473774e+05 -6.330167228660e-05 -2.324402783703e+05 -2.324650049394e+05 -2.097790787585e-05 -6.431449904319e-15 1.256109709955e-09 0.000000000000e+00 0.000000000000e+00 
4.000000000000e+00 1.000000000000e+01 0.000000000000e+00 2.981196254934e+02 2.078413568148e-05 0.000000000000e+00 -6.454123189957e+05 -1.030724287581e-05 -2.324304684346e+05 -2.324613766179e+05 -2.097790787279e-05 -1.047215876182e-15 1.570135708893e-09 0.000000000000e+00 0.000000000000e+00 
5.000000000000e+00 9.000000000000e+00 0.000000000000e+00 2.981567524496e+02 3.670427269496e-15 -1.413124155631e-09 -6.454159473975e+05 -7.509980380032e-06 -2.400691049968e+05 -2.400938315842e+05 -2.059036348331e-05 -7.630140066112e-16 1.256110638841e-09 0.000000000000e+00 0.000000000000e+00 
5.000000000000e+00 1.000000000000e+01 0.000000000000e+00 2.981567524496e+02 3.416596943854e-15 0.000000000000e+00 -6.454123190400e+05 5.444484704105e-07 -2.400592950133e+05 -2.400902032401e+05 -2.059036348264e-05 5.531596459370e-17 1.570137921183e-09 0.000000000000e+00 0.000000000000e+00 
0.000000000000e+00 8.000000000000e+00 0.000000000000e+00 3.080000000000e+02 0.000000000000e+00 -2.512219737217e-09 -6.454195757095e+05 -2.526563691993e-07 -2.262664028140e+06 -2.262682573039e+06 8.215696026432e-05 -2.566988711064e-17 9.420808349023e-10 0.000000000000e+00 0.000000000000e+00 
1.000000000000e+00 8.000000000000e+00 0.000000000000e+00 3.022827158632e+02 5.231743620828e-05 -2.512219653584e-09 -6.454195756848e+05 5.300344416253e-06 -1.087879616483e+06 -1.087898161362e+06 2.247791215242e-05 5.385149926913e-16 9.420798760472e-10 0.000000000000e+00 0.000000000000e+00 
2.000000000000e+00 8.000000000000e+00 0.000000000000e+00 2.990306012753e+02 5.782198318234e-05 -2.512219342691e-09 -6.454195757116e+05 4.386116194212e-06 -4.196368929112e+05 -4.196554378187e+05 -1.146881820496e-05 4.456294053320e-16 9.420813035291e-10 0.000000000000e+00 0.000000000000e+00 
3.000000000000e+00 8.000000000000e+00 0.000000000000e+00 2.981352815433e+02 4.168033185198e-05 -2.512219497373e-09 -6.454195758528e+05 -1.355512747937e-05 -2.356670848458e+05 -2.356856298785e+05 -2.081448445550e-05 -1.377200951904e-15 9.420876589245e-10 0.000000000000e+00 0.000000000000e+00 
4.000000000000e+00 8.000000000000e+00 0.000000000000e+00 2.981196254934e+02 2.078413568525e-05 -2.512220336098e-09 -6.454195758007e+05 -1.475550226099e-05 -2.324500883439e+05 -2.324686333345e+05 -2.097790787728e-05 -1.499159029716e-15 9.420855249747e-10 0.000000000000e+00 0.000000000000e+00 
5.000000000000e+00 8.000000000000e+00 0.000000000000e+00 2.981567524493e+02 4.021876192636e-15 -2.512220705502e-09 -6.454195757308e+05 -1.387023523337e-06 -2.400789149445e+05 -2.400974598707e+05 -2.059036348569e-05 -1.409215899710e-16 9.420822532280e-10 0.000000000000e+00 0.000000000000e+00 
0.000000000000e+00 7.000000000000e+00 0.000000000000e+00 3.080000000000e+02 0.000000000000e+00 -3.297287428529e-09 -6.454232040860e+05 2.798631956779e-06 -2.262673838116e+06 -2.262686201394e+06 8.215696026323e-05 2.843410068087e-16 6.280545238255e-10 0.000000000000e+00 0.000000000000e+00 
1.000000000000e+00 7.000000000000e+00 0.000000000000e+00 3.022827158635e+02 5.231743620806e-05 -3.297287298511e-09 -6.454232041017e+05 7.406252003936e-07 -1.087889426493e+06 -1.087901789786e+06 2.247791215278e-05 7.524752035999e-17 6.280552846696e-10 0.000000000000e+00 0.000000000000e+00 
2.000000000000e+00 7.000000000000e+00 0.000000000000e+00 2.990306012758e+02 5.782198318353e-05 -3.297288026152e-09 -6.454232041187e+05 -3.750157488724e-05 -4.196467029818e+05 -4.196590662891e+05 -1.146881820174e-05 -3.810160008543e-15 6.280560146186e-10 0.000000000000e+00 0.000000000000e+00 
3.000000000000e+00 7.000000000000e+00 0.000000000000e+00 2.981352815423e+02 4.168033185323e-05 -3.297289914582e-09 -6.454232040644e+05 -2.817870743608e-05 -2.356768947698e+05 -2.356892580258e+05 -2.081448445876e-05 -2.862956675506e-15 6.280534013138e-10 0.000000000000e+00 0.000000000000e+00 
4.000000000000e+00 7.000000000000e+00 0.000000000000e+00 2.981196254930e+02 2.078413568489e-05 -3.297290034319e-09 -6.454232040759e+05 1.736711375403e-05 -2.324598983275e+05 -2.324722615950e+05 -2.097790787803e-05 1.764498757409e-15 6.280539937325e-10 0.000000000000e+00 0.000000000000e+00 
5.000000000000e+00 7.000000000000e+00 0.000000000000e+00 2.981567524495e+02 3.914701369902e-15 -3.297289419992e-09 -6.454232040967e+05 4.128525279158e-06 -2.400887249853e+05 -2.401010882725e+05 -2.059036348387e-05 4.194581683624e-16 6.280549911493e-10 0.000000000000e+00 0.000000000000e+00 
0.000000000000e+00 6.000000000000e+00 0.000000000000e+00 3.080000000000e+02 0.000000000000e+00 -3.768328440875e-09 -6.454268324514e+05 1.273609908568e-06 -2.262683648108e+06 -2.262689829750e+06 8.215696026278e-05 1.293987667105e-16 3.140274185688e-10 0.000000000000e+00 0.000000000000e+00 
1.000000000000e+00 6.000000000000e+00 0.000000000000e+00 3.022827158636e+02 5.231743620835e-05 -3.768328483507e-09 -6.454268324469e+05 -5.109325176931e-06 -1.087899236517e+06 -1.087905418154e+06 2.247791215393e-05 -5.191074379761e-16 3.140271602465e-10 0.000000000000e+00 0.000000000000e+00 
2.000000000000e+00 6.000000000000e+00 0.000000000000e+00 2.990306012757e+02 5.782198318478e-05 -3.768329133653e-09 -6.454268324314e+05 -2.132508005209e-05 -4.196565129941e+05 -4.196626946159e+05 -1.146881820102e-05 -2.166628133292e-15 3.140263902573e-10 0.000000000000e+00 0.000000000000e+00 
3.000000000000e+00 6.000000000000e+00 0.000000000000e+00 2.981352815422e+02 4.168033185403e-05 -3.768330079925e-09 -6.454268324362e+05 -1.010775330941e-05 -2.356867047363e+05 -2.356928863640e+05 -2.081448446047e-05 -1.026947736236e-15 3.140266875717e-10 0.000000000000e+00 0.000000000000e+00 
4.000000000000e+00 6.000000000000e+00 0.000000000000e+00 2.981196254929e+02 2.078413568458e-05 -3.768330087426e-09 -6.454268324220e+05 5.185251572398e-06 -2.324697083172e+05 -2.324758899312e+05 -2.097790787853e-05 5.268215597556e-16 3.140259899497e-10 0.000000000000e+00 0.000000000000e+00 
5.000000000000e+00 6.000000000000e+00 0.000000000000e+00 2.981567524495e+02 3.899605834411e-15 -3.768330048940e-09 -6.454268324320e+05 -3.986776559110e-06 -2.400985350055e+05 -2.401047166278e+05 -2.059036348285e-05 -4.050564984056e-16 3.140264160231e-10 0.000000000000e+00 0.000000000000e+00 
0.000000000000e+00 5.000000000000e+00 0.000000000000e+00 3.080000000000e+02 0.000000000000e+00 -3.925342235934e-09 -6.454304608133e+05 6.856758612353e-07 -2.262693458102e+06 -2.262693458106e+06 8.215696026249e-05 6.966466750151e-17 2.154383492469e-16 0.000000000000e+00 0.000000000000e+00 
1.000000000000e+00 5.000000000000e+00 0.000000000000e+00 3.022827158637e+02 5.231743620845e-05 -3.925342222343e-09 -6.454304608173e+05 -6.046078354224e-07 -1.087909046526e+06 -1.087909046534e+06 2.247791215439e-05 -6.142815607891e-17 3.677456784010e-16 0.000000000000e+00 0.000000000000e+00 
2.000000000000e+00 5.000000000000e+00 0.000000000000e+00 2.990306012759e+02 5.782198318552e-05 -3.925342423565e-09 -6.454304608131e+05 -7.012875145594e-06 -4.196663230128e+05 -4.196663230157e+05 -1.146881820011e-05 -7.125081147924e-16 1.468946513588e-16 0.000000000000e+00 0.000000000000e+00 
3.000000000000e+00 5.000000000000e+00 0.000000000000e+00 2.981352815420e+02 4.168033185441e-05 -3.925342765623e-09 -6.454304607804e+05 -4.228358697607e-06 -2.356965147007e+05 -2.356965146742e+05 -2.081448446220e-05 -4.296012436769e-16 -1.345913645337e-15 0.000000000000e+00 0.000000000000e+00 
4.000000000000e+00 5.000000000000e+00 0.000000000000e+00 2.981196254930e+02 2.078413568441e-05 -3.925342811890e-09 -6.454304607992e+05 1.334400989916e-06 -2.324795183314e+05 -2.324795183210e+05 -2.097790787789e-05 1.355751405755e-16 -5.298028132476e-16 0.000000000000e+00 0.000000000000e+00 
5.000000000000e+00 5.000000000000e+00 0.000000000000e+00 2.981567524495e+02 4.218708561436e-15 -3.925342915937e-09 -6.454304607948e+05 -7.112965680676e-06 -2.401083450137e+05 -2.401083449993e+05 -2.059036348241e-05 -7.226773131566e-16 -7.324431496997e-16 0.000000000000e+00 0.000000000000e+00 
0.000000000000e+00 4.000000000000e+00 0.000000000000e+00 3.080000000000e+02 0.000000000000e+00 -3.768328718536e-09 -6.454340891705e+05 -2.310326939492e-08 -2.262703268102e+06 -2.262697086463e+06 8.215696026244e-05 -2.347292170524e-18 -3.140272553804e-10 0.000000000000e+00 0.000000000000e+00 
1.000000000000e+00 4.000000000000e+00 0.000000000000e+00 3.022827158637e+02 5.231743620851e-05 -3.768328711418e-09 -6.454340891684e+05 -1.436362380200e-08 -1.087918856530e+06 -1.087912674889e+06 2.247791215459e-05 -1.459344178283e-18 -3.140273696951e-10 0.000000000000e+00 0.000000000000e+00 
2.000000000000e+00 4.000000000000e+00 0.000000000000e+00 2.990306012758e+02 5.782198318552e-05 -3.768328664608e-09 -6.454340891628e+05 3.360532358609e-06 -4.196761330024e+05 -4.196699513562e+05 -1.146881820058e-05 3.414300876347e-16 -3.140276258327e-10 0.000000000000e+00 0.000000000000e+00 
3.000000000000e+00 4.000000000000e+00 0.000000000000e+00 2.981352815422e+02 4.168033185448e-05 -3.768328517747e-09 -6.454340891711e+05 7.180524074193e-07 -2.357063247172e+05 -2.357001430790e+05 -2.081448446148e-05 7.295412459381e-17 -3.140272239733e-10 0.000000000000e+00 0.000000000000e+00 
4.000000000000e+00 4.000000000000e+00 0.000000000000e+00 2.981196254930e+02 2.078413568453e-05 -3.768328638487e-09 -6.454340891587e+05 -3.518651772538e-06 -2.324893283191e+05 -2.324831466693e+05 -2.097790787846e-05 -3.574950200899e-16 -3.140278092533e-10 0.000000000000e+00 0.000000000000e+00 
5.000000000000e+00 4.000000000000e+00 0.000000000000e+00 2.981567524497e+02 4.543567144832e-15 -3.768328851840e-09 -6.454340891685e+05 -7.009901657213e-06 -2.401181550314e+05 -2.401119733902e+05 -2.059036348154e-05 -7.122060083728e-16 -3.140273730480e-10 0.000000000000e+00 0.000000000000e+00 
0.000000000000e+00 3.000000000000e+00 0.000000000000e+00 3.080000000000e+02 0.000000000000e+00 -3.297287727530e-09 -6.454377175277e+05 -7.040119231592e-08 -2.262713078100e+06 -2.262700714819e+06 8.215696026239e-05 -7.152761139297e-18 -6.280547001829e-10 0.000000000000e+00 0.000000000000e+00 
1.000000000000e+00 3.000000000000e+00 0.000000000000e+00 3.022827158637e+02 5.231743620842e-05 -3.297287666911e-09 -6.454377175276e+05 2.841569292543e-06 -1.087928666527e+06 -1.087916303245e+06 2.247791215445e-05 2.887034401224e-16 -6.280547145271e-10 0.000000000000e+00 0.000000000000e+00 
2.000000000000e+00 3.000000000000e+00 0.000000000000e+00 2.990306012758e+02 5.782198318537e-05 -3.297287463949e-09 -6.454377175257e+05 4.796501428119e-06 -4.196859430043e+05 -4.196735797204e+05 -1.146881820051e-05 4.873245450969e-16 -6.280548215396e-10 0.000000000000e+00 0.000000000000e+00 
3.000000000000e+00 3.000000000000e+00 0.000000000000e+00 2.981352815421e+02 4.168033185438e-05 -3.297287232325e-09 -6.454377175157e+05 3.719448285406e-06 -2.357161347173e+05 -2.357037714240e+05 -2.081448446146e-05 3.778959457972e-16 -6.280552973297e-10 0.000000000000e+00 0.000000000000e+00 
4.000000000000e+00 3.000000000000e+00 0.000000000000e+00 2.981196254931e+02 2.078413568466e-05 -3.297287155521e-09 -6.454377175178e+05 -1.702694866075e-06 -2.324991383279e+05 -2.324867750372e+05 -2.097790787802e-05 -1.729937983932e-16 -6.280551694389e-10 0.000000000000e+00 0.000000000000e+00 
5.000000000000e+00 3.000000000000e+00 0.000000000000e+00 2.981567524497e+02 4.971325423622e-15 -3.297287442439e-09 -6.454377175126e+05 -9.034247031259e-06 -2.401279650338e+05 -2.401156017374e+05 -2.059036348138e-05 -9.178794983759e-16 -6.280554575262e-10 0.000000000000e+00 0.000000000000e+00 
0.000000000000e+00 2.000000000000e+00 0.000000000000e+00 3.080000000000e+02 0.000000000000e+00 -2.512219317279e-09 -6.454413458851e+05 -3.495344510477e-07 -2.262722888099e+06 -2.262704343175e+06 8.215696026232e-05 -3.551270022645e-17 -9.420821312009e-10 0.000000000000e+00 0.000000000000e+00 
1.000000000000e+00 2.000000000000e+00 0.000000000000e+00 3.022827158637e+02 5.231743620828e-05 -2.512219281142e-09 -6.454413458873e+05 2.195713041339e-06 -1.087938476522e+06 -1.087919931600e+06 2.247791215422e-05 2.230844450000e-16 -9.420820278440e-10 0.000000000000e+00 0.000000000000e+00 
2.000000000000e+00 2.000000000000e+00 0.000000000000e+00 2.990306012758e+02 5.782198318499e-05 -2.512218997521e-09 -6.454413458876e+05 1.045013461599e-05 -4.196957529991e+05 -4.196772080765e+05 -1.146881820080e-05 1.061733676984e-15 -9.420820678690e-10 0.000000000000e+00 0.000000000000e+00 
3.000000000000e+00 2.000000000000e+00 0.000000000000e+00 2.981352815422e+02 4.168033185397e-05 -2.512218328358e-09 -6.454413458779e+05 1.667078513276e-05 -2.357259447239e+05 -2.357073997924e+05 -2.081448446114e-05 1.693751769488e-15 -9.420825220393e-10 0.000000000000e+00 0.000000000000e+00 
4.000000000000e+00 2.000000000000e+00 0.000000000000e+00 2.981196254930e+02 2.078413568473e-05 -2.512217845859e-09 -6.454413458555e+05 -1.343755137690e-06 -2.325089483385e+05 -2.324904033865e+05 -2.097790787742e-05 -1.365255219893e-16 -9.420835595382e-10 0.000000000000e+00 0.000000000000e+00 
5.000000000000e+00 2.000000000000e+00 0.000000000000e+00 2.981567524497e+02 5.546553451772e-15 -2.512218420614e-09 -6.454413458771e+05 -1.744703692957e-05 -2.401377750420e+05 -2.401192301096e+05 -2.059036348099e-05 -1.772618952044e-15 -9.420825685000e-10 0.000000000000e+00 0.000000000000e+00 
0.000000000000e+00 1.000000000000e+00 0.000000000000e+00 3.080000000000e+02 0.000000000000e+00 -1.413123399578e-09 -6.454449742395e+05 4.384011016405e-07 -2.262732698100e+06 -2.262707971531e+06 8.215696026241e-05 4.454155192668e-17 -1.256109727387e-09 0.000000000000e+00 0.000000000000e+00 
1.000000000000e+00 1.000000000000e+00 0.000000000000e+00 3.022827158636e+02 5.231743620827e-05 -1.413123437981e-09 -6.454449742394e+05 -3.967333770321e-06 -1.087948286519e+06 -1.087923559950e+06 2.247791215411e-05 -4.030811110646e-16 -1.256109709791e-09 0.000000000000e+00 0.000000000000e+00 
2.000000000000e+00 1.000000000000e+00 0.000000000000e+00 2.990306012758e+02 5.782198318450e-05 -1.413123463973e-09 -6.454449742560e+05 7.520555152433e-06 -4.197055629817e+05 -4.196808364285e+05 -1.146881820164e-05 7.640884034872e-16 -1.256108902363e-09 0.000000000000e+00 0.000000000000e+00 
3.000000000000e+00 1.000000000000e+00 0.000000000000e+00 2.981352815423e+02 4.168033185301e-05 -1.413122693786e-09 -6.454449742587e+05 2.074379221564e-05 -2.357357547184e+05 -2.357110281681e+05 -2.081448446140e-05 2.107569289109e-15 -1.256108754421e-09 0.000000000000e+00 0.000000000000e+00 
4.000000000000e+00 1.000000000000e+00 0.000000000000e+00 2.981196254936e+02 2.078413568473e-05 -1.413122094939e-09 -6.454449742772e+05 2.487395446993e-06 -2.325187583887e+05 -2.324940318546e+05 -2.097790787507e-05 2.527193774145e-16 -1.256107933431e-09 0.000000000000e+00 0.000000000000e+00 
5.000000000000e+00 1.000000000000e+00 0.000000000000e+00 2.981567524498e+02 6.412961108704e-15 -1.413122457820e-09 -6.454449742457e+05 -1.398852345788e-05 -2.401475850314e+05 -2.401228584684e+05 -2.059036348148e-05 -1.421233983321e-15 -1.256109397629e-09 0.000000000000e+00 0.000000000000e+00 
0.000000000000e+00 0.000000000000e+00 0.000000000000e+00 3.080000000000e+02 0.000000000000e+00 0.000000000000e+00 -6.454486025998e+05 5.071449310648e-07 -2.262742508097e+06 -2.262711599887e+06 8.215696026221e-05 5.152592499619e-17 -1.570137057370e-09 0.000000000000e+00 0.000000000000e+00 
1.000000000000e+00 0.000000000000e+00 0.000000000000e+00 3.022827158637e+02 5.231743620843e-05 0.000000000000e+00 -6.454486025978e+05 -1.996035503730e-06 -1.087958096533e+06 -1.087927188321e+06 2.247791215473e-05 -2.027972071789e-16 -1.570137159048e-09 0.000000000000e+00 0.000000000000e+00 
2.000000000000e+00 0.000000000000e+00 0.000000000000e+00 2.990306012755e+02 5.782198318433e-05 0.000000000000e+00 -6.454486025750e+05 -2.051285859162e-07 -4.197153729512e+05 -4.196844647200e+05 -1.146881820304e-05 -2.084106432908e-17 -1.570138144971e-09 0.000000000000e+00 0.000000000000e+00 
3.000000000000e+00 0.000000000000e+00 0.000000000000e+00 2.981352815423e+02 4.168033185251e-05 0.000000000000e+00 -6.454486026090e+05 1.260554474390e-06 -2.357455647327e+05 -2.357146565318e+05 -2.081448446072e-05 1.280723345980e-16 -1.570136606487e-09 0.000000000000e+00 0.000000000000e+00 
4.000000000000e+00 0.000000000000e+00 0.000000000000e+00 2.981196254935e+02 2.078413568460e-05 0.000000000000e+00 -6.454486026189e+05 1.205362887797e-06 -2.325285683902e+05 -2.324976601984e+05 -2.097790787496e-05 1.224648694002e-16 -1.570136143189e-09 0.000000000000e+00 0.000000000000e+00 
5.000000000000e+00 0.000000000000e+00 0.000000000000e+00 2.981567524500e+02 6.665946477353e-15 0.000000000000e+00 -6.454486026324e+05 1.024337989018e-06 -2.401573950464e+05 -2.401264868680e+05 -2.059036348083e-05 1.040727396843e-16 -1.570135461375e-09 0.000000000000e+00 0.000000000000e+00 
6.000000000000e+00 9.000000000000e+00 0.000000000000e+00 2.981196254934e+02 -2.078413567536e-05 -1.413124138635e-09 -6.454159473833e+05 -1.394447415446e-06 -2.324402783925e+05 -2.324650049676e+05 -2.097790787472e-05 -1.416758574093e-16 1.256110014265e-09 0.000000000000e+00 0.000000000000e+00 
6.000000000000e+00 1.000000000000e+01 0.000000000000e+00 2.981196254934e+02 -2.078413567540e-05 0.000000000000e+00 -6.454123190419e+05 -1.202973797913e-07 -2.324304683854e+05 -2.324613766182e+05 -2.097790787512e-05 -1.222221378679e-17 1.570138227273e-09 0.000000000000e+00 0.000000000000e+00 
7.000000000000e+00 9.000000000000e+00 0.000000000000e+00 2.981352815422e+02 -4.168033184398e-05 -1.413124376744e-09 -6.454159474037e+05 4.323181006394e-06 -2.356572746952e+05 -2.356820012894e+05 -2.081448446261e-05 4.392351902497e-16 1.256110984641e-09 0.000000000000e+00 0.000000000000e+00 
7.000000000000e+00 1.000000000000e+01 0.000000000000e+00 2.981352815422e+02 -4.168033184379e-05 0.000000000000e+00 -6.454123190340e+05 3.478866821007e-06 -2.356474647178e+05 -2.356783729423e+05 -2.081448446146e-05 3.534528690143e-16 1.570137809097e-09 0.000000000000e+00 0.000000000000e+00 
8.000000000000e+00 9.000000000000e+00 0.000000000000e+00 2.990306012752e+02 -5.782198317915e-05 -1.413124434383e-09 -6.454159474060e+05 -2.876793755005e-05 -4.196270828637e+05 -4.196518094599e+05 -1.146881820766e-05 -2.922822455085e-15 1.256111089912e-09 0.000000000000e+00 0.000000000000e+00 
8.000000000000e+00 1.000000000000e+01 0.000000000000e+00 2.990306012747e+02 -5.782198318007e-05 0.000000000000e+00 -6.454123190203e+05 -5.825782432671e-06 -4.196172727798e+05 -4.196481809977e+05 -1.146881821155e-05 -5.918994951594e-16 1.570137468339e-09 0.000000000000e+00 0.000000000000e+00 
9.000000000000e+00 9.000000000000e+00 0.000000000000e+00 3.022827158634e+02 -5.231743620697e-05 -1.413126328360e-09 -6.454159473894e+05 -2.186436032115e-05 -1.087869806478e+06 -1.087894533059e+06 2.247791215199e-05 -2.221419008629e-15 1.256110292042e-09 0.000000000000e+00 0.000000000000e+00 
9.000000000000e+00 1.000000000000e+01 0.000000000000e+00 3.022827158644e+02 -5.231743620764e-05 0.000000000000e+00 -6.454123191375e+05 -3.231702942736e-06 -1.087859996576e+06 -1.087890904897e+06 2.247791215656e-05 -3.283410189820e-16 1.570142696805e-09 0.000000000000e+00 0.000000000000e+00 
1.000000000000e+01 9.000000000000e+00 0.000000000000e+00 3.080000000000e+02 0.000000000000e+00 -1.413126132514e-09 -6.454159473991e+05 1.167311183877e-05 -2.262654218092e+06 -2.262678944682e+06 8.215696026196e-05 1.185988162819e-15 1.256110750599e-09 0.000000000000e+00 0.000000000000e+00 
1.000000000000e+01 1.000000000000e+01 0.000000000000e+00 3.080000000000e+02 0.000000000000e+00 0.000000000000e+00 -6.454123191035e+05 3.787051231845e-06 -2.262644408028e+06 -2.262675316325e+06 8.215696025884e-05 3.847644051555e-16 1.570141457242e-09 0.000000000000e+00 0.000000000000e+00 
6.000000000000e+00 8.000000000000e+00 0.000000000000e+00 2.981196254936e+02 -2.078413567527e-05 -2.512220761199e-09 -6.454195757566e+05 -9.924276491496e-07 -2.324500884314e+05 -2.324686333773e+05 -2.097790787287e-05 -1.008306491536e-16 9.420832517158e-10 0.000000000000e+00 0.000000000000e+00 
7.000000000000e+00 8.000000000000e+00 0.000000000000e+00 2.981352815419e+02 -4.168033184382e-05 -2.512220956699e-09 -6.454195757301e+05 -7.037527314615e-06 -2.356670846602e+05 -2.356856295830e+05 -2.081448446428e-05 -7.150127751649e-16 9.420820761878e-10 0.000000000000e+00 0.000000000000e+00 
8.000000000000e+00 8.000000000000e+00 0.000000000000e+00 2.990306012755e+02 -5.782198317821e-05 -2.512221432415e-09 -6.454195757605e+05 -1.212475768999e-05 -4.196368929329e+05 -4.196554378796e+05 -1.146881820435e-05 -1.231875381303e-15 9.420832928845e-10 0.000000000000e+00 0.000000000000e+00 
9.000000000000e+00 8.000000000000e+00 0.000000000000e+00 3.022827158628e+02 -5.231743620626e-05 -2.512221927042e-09 -6.454195756975e+05 -4.638729377887e-06 -1.087879616401e+06 -1.087898161293e+06 2.247791214827e-05 -4.712949047933e-16 9.420805374831e-10 0.000000000000e+00 0.000000000000e+00 
1.000000000000e+01 8.000000000000e+00 0.000000000000e+00 3.080000000000e+02 0.000000000000e+00 -2.512221962559e-09 -6.454195757125e+05 1.102959022432e-06 -2.262664028136e+06 -2.262682573038e+06 8.215696026415e-05 1.120606366791e-16 9.420810407660e-10 0.000000000000e+00 0.000000000000e+00 
6.000000000000e+00 7.000000000000e+00 0.000000000000e+00 2.981196254934e+02 -2.078413567516e-05 -3.297289683584e-09 -6.454232040891e+05 -4.797849595426e-06 -2.324598984002e+05 -2.324722616806e+05 -2.097790787435e-05 -4.874615188953e-16 6.280546432229e-10 0.000000000000e+00 0.000000000000e+00 
7.000000000000e+00 7.000000000000e+00 0.000000000000e+00 2.981352815422e+02 -4.168033184345e-05 -3.297289787197e-09 -6.454232041097e+05 -7.047966941165e-06 -2.356768947052e+05 -2.356892580041e+05 -2.081448446216e-05 -7.160734412224e-16 6.280555861618e-10 0.000000000000e+00 0.000000000000e+00 
8.000000000000e+00 7.000000000000e+00 0.000000000000e+00 2.990306012752e+02 -5.782198317795e-05 -3.297290223194e-09 -6.454232040827e+05 -7.962625124815e-08 -4.196467028788e+05 -4.196590661533e+05 -1.146881820681e-05 -8.090027126813e-18 6.280543457174e-10 0.000000000000e+00 0.000000000000e+00 
9.000000000000e+00 7.000000000000e+00 0.000000000000e+00 3.022827158632e+02 -5.231743620639e-05 -3.297289869404e-09 -6.454232041027e+05 6.253401552860e-06 -1.087889426437e+06 -1.087901789730e+06 2.247791214988e-05 6.353455977705e-16 6.280552910979e-10 0.000000000000e+00 0.000000000000e+00 
1.000000000000e+01 7.000000000000e+00 0.000000000000e+00 3.080000000000e+02 0.000000000000e+00 -3.297289912256e-09 -6.454232040924e+05 -2.871793051725e-06 -2.262673838110e+06 -2.262686201394e+06 8.215696026292e-05 -2.917741740552e-16 6.280548069108e-10 0.000000000000e+00 0.000000000000e+00 
6.000000000000e+00 6.000000000000e+00 0.000000000000e+00 2.981196254933e+02 -2.078413567477e-05 -3.768330430620e-09 -6.454268324387e+05 -1.038033441802e-05 -2.324697083988e+05 -2.324758900282e+05 -2.097790787445e-05 -1.054641976871e-15 3.140267763930e-10 0.000000000000e+00 0.000000000000e+00 
7.000000000000e+00 6.000000000000e+00 0.000000000000e+00 2.981352815420e+02 -4.168033184316e-05 -3.768330868332e-09 -6.454268324376e+05 -6.045899048085e-06 -2.356867047010e+05 -2.356928863291e+05 -2.081448446231e-05 -6.142633432854e-16 3.140267069802e-10 0.000000000000e+00 0.000000000000e+00 
8.000000000000e+00 6.000000000000e+00 0.000000000000e+00 2.990306012751e+02 -5.782198317795e-05 -3.768331024360e-09 -6.454268324444e+05 -5.560033869134e-07 -4.196565128702e+05 -4.196626945058e+05 -1.146881820728e-05 -5.648994411040e-17 3.140270879654e-10 0.000000000000e+00 0.000000000000e+00 
9.000000000000e+00 6.000000000000e+00 0.000000000000e+00 3.022827158632e+02 -5.231743620651e-05 -3.768331023524e-09 -6.454268324464e+05 7.651356331250e-07 -1.087899236442e+06 -1.087905418079e+06 2.247791215014e-05 7.773778032550e-17 3.140271472165e-10 0.000000000000e+00 0.000000000000e+00 
1.000000000000e+01 6.000000000000e+00 0.000000000000e+00 3.080000000000e+02 0.000000000000e+00 -3.768330992492e-09 -6.454268324490e+05 3.688922451160e-07 -2.262683648111e+06 -2.262689829750e+06 8.215696026291e-05 3.747945210379e-17 3.140272998120e-10 0.000000000000e+00 0.000000000000e+00 
6.000000000000e+00 5.000000000000e+00 0.000000000000e+00 2.981196254934e+02 -2.078413567422e-05 -3.925343478872e-09 -6.454304607966e+05 -1.335132131395e-05 -2.324795183975e+05 -2.324795183850e+05 -2.097790787451e-05 -1.356494245497e-15 -6.353810163307e-16 0.000000000000e+00 0.000000000000e+00 
7.000000000000e+00 5.000000000000e+00 0.000000000000e+00 2.981352815420e+02 -4.168033184278e-05 -3.925344033402e-09 -6.454304608006e+05 -9.063487784290e-06 -2.356965146951e+05 -2.356965146865e+05 -2.081448446260e-05 -9.208503588838e-16 -4.350084885469e-16 0.000000000000e+00 0.000000000000e+00 
8.000000000000e+00 5.000000000000e+00 0.000000000000e+00 2.990306012751e+02 -5.782198317780e-05 -3.925344362697e-09 -6.454304608023e+05 -4.174058011843e-06 -4.196663228672e+05 -4.196663228603e+05 -1.146881820746e-05 -4.240842940033e-16 -3.513004807954e-16 0.000000000000e+00 0.000000000000e+00 
9.000000000000e+00 5.000000000000e+00 0.000000000000e+00 3.022827158632e+02 -5.231743620650e-05 -3.925344480697e-09 -6.454304608042e+05 -1.036701984467e-06 -1.087909046441e+06 -1.087909046435e+06 2.247791215007e-05 -1.053289216219e-16 -2.615421847323e-16 0.000000000000e+00 0.000000000000e+00 
1.000000000000e+01 5.000000000000e+00 0.000000000000e+00 3.080000000000e+02 0.000000000000e+00 -3.925344503484e-09 -6.454304608047e+05 1.155064797615e-08 -2.262693458111e+06 -2.262693458106e+06 8.215696026293e-05 1.173545834377e-18 -2.358870084939e-16 0.000000000000e+00 0.000000000000e+00 
6.000000000000e+00 4.000000000000e+00 0.000000000000e+00 2.981196254934e+02 -2.078413567355e-05 -3.768329386612e-09 -6.454340891641e+05 -1.284163150321e-05 -2.324893283953e+05 -2.324831467504e+05 -2.097790787462e-05 -1.304709760726e-15 -3.140275653084e-10 0.000000000000e+00 0.000000000000e+00 
7.000000000000e+00 4.000000000000e+00 0.000000000000e+00 2.981352815420e+02 -4.168033184229e-05 -3.768329981017e-09 -6.454340891622e+05 -1.010778214544e-05 -2.357063246895e+05 -2.357001430426e+05 -2.081448446288e-05 -1.026950665976e-15 -3.140276618291e-10 0.000000000000e+00 0.000000000000e+00 
8.000000000000e+00 4.000000000000e+00 0.000000000000e+00 2.990306012751e+02 -5.782198317756e-05 -3.768330356285e-09 -6.454340891622e+05 -5.060127017745e-06 -4.196761328631e+05 -4.196699512159e+05 -1.146881820767e-05 -5.141089050028e-16 -3.140276780204e-10 0.000000000000e+00 0.000000000000e+00 
9.000000000000e+00 4.000000000000e+00 0.000000000000e+00 3.022827158632e+02 -5.231743620643e-05 -3.768330514908e-09 -6.454340891624e+05 -1.472955183072e-06 -1.087918856438e+06 -1.087912674791e+06 2.247791214995e-05 -1.496522466001e-16 -3.140276579994e-10 0.000000000000e+00 0.000000000000e+00 
1.000000000000e+01 4.000000000000e+00 0.000000000000e+00 3.080000000000e+02 0.000000000000e+00 -3.768330538592e-09 -6.454340891615e+05 1.660298415017e-07 -2.262703268110e+06 -2.262697086463e+06 8.215696026289e-05 1.686863189657e-17 -3.140276954050e-10 0.000000000000e+00 0.000000000000e+00 
6.000000000000e+00 3.000000000000e+00 0.000000000000e+00 2.981196254934e+02 -2.078413567295e-05 -3.297288013323e-09 -6.454377175183e+05 -1.287129654403e-05 -2.324991383986e+05 -2.324867751076e+05 -2.097790787446e-05 -1.307723728874e-15 -6.280551807788e-10 0.000000000000e+00 0.000000000000e+00 
7.000000000000e+00 3.000000000000e+00 0.000000000000e+00 2.981352815420e+02 -4.168033184175e-05 -3.297288656426e-09 -6.454377175219e+05 -1.242420506167e-05 -2.357161346847e+05 -2.357037713973e+05 -2.081448446313e-05 -1.262299234265e-15 -6.280549998575e-10 0.000000000000e+00 0.000000000000e+00 
8.000000000000e+00 3.000000000000e+00 0.000000000000e+00 2.990306012751e+02 -5.782198317732e-05 -3.297289098072e-09 -6.454377175262e+05 -4.052415310313e-06 -4.196859428574e+05 -4.196735795738e+05 -1.146881820798e-05 -4.117253955278e-16 -6.280548056873e-10 0.000000000000e+00 0.000000000000e+00 
9.000000000000e+00 3.000000000000e+00 0.000000000000e+00 3.022827158632e+02 -5.231743620641e-05 -3.297289106531e-09 -6.454377175182e+05 1.920294162130e-06 -1.087928666435e+06 -1.087916303145e+06 2.247791214983e-05 1.951018868724e-16 -6.280551631132e-10 0.000000000000e+00 0.000000000000e+00 
1.000000000000e+01 3.000000000000e+00 0.000000000000e+00 3.080000000000e+02 0.000000000000e+00 -3.297289070877e-09 -6.454377175163e+05 9.362396425372e-08 -2.262713078111e+06 -2.262700714819e+06 8.215696026296e-05 9.512194768178e-18 -6.280552669859e-10 0.000000000000e+00 0.000000000000e+00 
6.000000000000e+00 2.000000000000e+00 0.000000000000e+00 2.981196254934e+02 -2.078413567223e-05 -2.512219193731e-09 -6.454413458796e+05 -1.559198050618e-05 -2.325089483982e+05 -2.324904034683e+05 -2.097790787450e-05 -1.584145219428e-15 -9.420824356422e-10 0.000000000000e+00 0.000000000000e+00 
7.000000000000e+00 2.000000000000e+00 0.000000000000e+00 2.981352815420e+02 -4.168033184112e-05 -2.512219907377e-09 -6.454413458792e+05 -1.230271614117e-05 -2.357259446820e+05 -2.357073997516e+05 -2.081448446328e-05 -1.249955959943e-15 -9.420824642998e-10 0.000000000000e+00 0.000000000000e+00 
8.000000000000e+00 2.000000000000e+00 0.000000000000e+00 2.990306012750e+02 -5.782198317720e-05 -2.512220238401e-09 -6.454413458697e+05 6.581845289467e-07 -4.196957528390e+05 -4.196772078998e+05 -1.146881820887e-05 6.687154814098e-17 -9.420829145127e-10 0.000000000000e+00 0.000000000000e+00 
9.000000000000e+00 2.000000000000e+00 0.000000000000e+00 3.022827158632e+02 -5.231743620655e-05 -2.512220051849e-09 -6.454413458684e+05 3.470664869395e-06 -1.087938476441e+06 -1.087919931501e+06 2.247791215014e-05 3.526195507305e-16 -9.420829706837e-10 0.000000000000e+00 0.000000000000e+00 
1.000000000000e+01 2.000000000000e+00 0.000000000000e+00 3.080000000000e+02 0.000000000000e+00 -2.512220033104e-09 -6.454413458724e+05 -9.674774407157e-07 -2.262722888112e+06 -2.262704343175e+06 8.215696026297e-05 -9.829570797672e-17 -9.420827992057e-10 0.000000000000e+00 0.000000000000e+00 
6.000000000000e+00 1.000000000000e+00 0.000000000000e+00 2.981196254935e+02 -2.078413567148e-05 -1.413123144141e-09 -6.454449742406e+05 -1.514526756926e-05 -2.325187584000e+05 -2.324940318318e+05 -2.097790787437e-05 -1.538759185037e-15 -1.256109667648e-09 0.000000000000e+00 0.000000000000e+00 
7.000000000000e+00 1.000000000000e+00 0.000000000000e+00 2.981352815420e+02 -4.168033184059e-05 -1.413123782517e-09 -6.454449742384e+05 -1.090454856452e-05 -2.357357546699e+05 -2.357110280995e+05 -2.081448446385e-05 -1.107902134155e-15 -1.256109772818e-09 0.000000000000e+00 0.000000000000e+00 
8.000000000000e+00 1.000000000000e+00 0.000000000000e+00 2.990306012750e+02 -5.782198317730e-05 -1.413124007084e-09 -6.454449742436e+05 3.419723392838e-06 -4.197055628249e+05 -4.196808362594e+05 -1.146881820960e-05 3.474438967123e-16 -1.256109523948e-09 0.000000000000e+00 0.000000000000e+00 
9.000000000000e+00 1.000000000000e+00 0.000000000000e+00 3.022827158633e+02 -5.231743620671e-05 -1.413123706707e-09 -6.454449742396e+05 5.134613119827e-06 -1.087948286455e+06 -1.087923559885e+06 2.247791215079e-05 5.216766929744e-16 -1.256109742816e-09 0.000000000000e+00 0.000000000000e+00 
1.000000000000e+01 1.000000000000e+00 0.000000000000e+00 3.080000000000e+02 0.000000000000e+00 -1.413123669878e-09 -6.454449742353e+05 -1.185873523404e-06 -2.262732698105e+06 -2.262707971531e+06 8.215696026262e-05 -1.204847499778e-16 -1.256109936432e-09 0.000000000000e+00 0.000000000000e+00 
6.000000000000e+00 0.000000000000e+00 0.000000000000e+00 2.981196254935e+02 -2.078413567102e-05 0.000000000000e+00 -6.454486026079e+05 -1.883614726863e-06 -2.325285683979e+05 -2.324976601965e+05 -2.097790787450e-05 -1.913752562493e-16 -1.570136628949e-09 0.000000000000e+00 0.000000000000e+00 
7.000000000000e+00 0.000000000000e+00 0.000000000000e+00 2.981352815419e+02 -4.168033184025e-05 0.000000000000e+00 -6.454486025827e+05 -1.750193535792e-06 -2.357455646668e+05 -2.357146564414e+05 -2.081448446398e-05 -1.778196632365e-16 -1.570137849415e-09 0.000000000000e+00 0.000000000000e+00 
8.000000000000e+00 0.000000000000e+00 0.000000000000e+00 2.990306012748e+02 -5.782198317737e-05 0.000000000000e+00 -6.454486025680e+05 4.154871683889e-07 -4.197153728073e+05 -4.196844645681e+05 -1.146881821039e-05 4.221349630831e-17 -1.570138554359e-09 0.000000000000e+00 0.000000000000e+00 
9.000000000000e+00 0.000000000000e+00 0.000000000000e+00 3.022827158633e+02 -5.231743620690e-05 0.000000000000e+00 -6.454486025887e+05 1.524609976513e-06 -1.087958096466e+06 -1.087927188245e+06 2.247791215132e-05 1.549003736137e-16 -1.570137640176e-09 0.000000000000e+00 0.000000000000e+00 
1.000000000000e+01 0.000000000000e+00 0.000000000000e+00 3.080000000000e+02 0.000000000000e+00 0.000000000000e+00 -6.454486025934e+05 -1.080197217760e-07 -2.262742508104e+06 -2.262711599887e+06 8.215696026253e-05 -1.097480373244e-17 -1.570137385586e-09 0.000000000000e+00 0.000000000000e+00 
1  2  3  4  
4  3  5  6  
6  5  7  8  
8  7  9  10  
10  9  11  12  
2  13  14  3  
3  14  15  5  
5  15  16  7  
7  16  17  9  
9  17  18  11  
13  19  20  14  
14  20  21  15  
15  21  22  16  
16  22  23  17  
17  23  24  18  
19  25  26  20  
20  26  27  21  
21  27  28  22  
22  28  29  23  
23  29  30  24  
25  31  32  26  
26  32  33  27  
27  33  34  28  
28  34  35  29  
29  35  36  30  
31  37  38  32  
32  38  39  33  
33  39  40  34  
34  40  41  35  
35  41  42  36  
37  43  44  38  
38  44  45  39  
39  45  46  40  
40  46  47  41  
41  47  48  42  
43  49  50  44  
44  50  51  45  
45  51  52  46  
46  52  53  47  
47  53  54  48  
49  55  56  50  
50  56  57  51  
51  57  58  52  
52  58  59  53  
53  59  60  54  
55  61  62  56  
56  62  63  57  
57  63  64  58  
58  64  65  59  
59  65  66  60  
12  11  67  68  
68  67  69  70  
70  69  71  72  
72  71  73  74  
74  73  75  76  
11  18  77  67  
67  77  78  69  
69  78  79  71  
71  79  80  73  
73  80  81  75  
18  24  82  77  
77  82  83  78  
78  83  84  79  
79  84  85  80  
80  85  86  81  
24  30  87  82  
82  87  88  83  
83  88  89  84  
84  89  90  85  
85  90  91  86  
30  36  92  87  
87  92  93  88  
88  93  94  89  
89  94  95  90  
90  95  96  91  
36  42  97  92  
92  97  98  93  
93  98  99  94  
94  99  100  95  
95  100  101  96  
42  48  102  97  
97  102  103  98  
98  103  104  99  
99  104  105  100  
100  105  106  101  
48  54  107  102  
102  107  108  103  
103  108  109  104  
104  109  110  105  
105  110  111  106  
54  60  112  107  
107  112  113  108  
108  113  114  109  
109  114  115  110  
110  115  116  111  
60  66  117  112  
112  117  118  113  
113  118  119  114  
114  119  120  115  
115  120  121  116  
VARIABLES  = "X","Y","Z", "TEMPERATURE1", "DISPLACEMENT_X1", "DISPLACEMENT_Y1", "STRESS_XX", "STRESS_XY", "STRESS_YY", "STRESS_ZZ", "STRAIN_XX", "STRAIN_XY", "STRAIN_YY", "STRAIN_ZZ", "STRAIN_PLS"
ZONE T="9.000000000000e-01s", N=121, E=100, F=FEPOINT, ET=QUADRILATERAL
STRANDID=1, SOLUTIONTIME=9.000000000000e-01
0.000000000000e+00 1.000000000000e+01 0.000000000000e+00 3.080000000000e+02 0.000000000000e+00 0.000000000000e+00 -6.848529697408e+05 -1.975727159768e-06 -2.277232045996e+06 -2.277262954248e+06 8.089442721298e-05 -2.007338794324e-16 1.570139204292e-09 0.000000000000e+00 0.000000000000e+00 
0.000000000000e+00 9.000000000000e+00 0.000000000000e+00 3.080000000000e+02 0.000000000000e+00 -1.413124501152e-09 -6.848565980600e+05 -6.625722683044e-06 -2.277241856036e+06 -2.277266582605e+06 8.089442721490e-05 -6.731734245973e-16 1.256109701777e-09 0.000000000000e+00 0.000000000000e+00 
1.000000000000e+00 9.000000000000e+00 0.000000000000e+00 3.025658149789e+02 5.253244785840e-05 -1.413124767018e-09 -6.848565980555e+05 1.004544127662e-06 -1.160628495544e+06 -1.160653222109e+06 2.417046850193e-05 1.020616833705e-16 1.256109504001e-09 0.000000000000e+00 0.000000000000e+00 
1.000000000000e+00 1.000000000000e+01 0.000000000000e+00 3.025658149794e+02 5.253244785856e-05 0.000000000000e+00 -6.848529697711e+05 -5.798632882490e-07 -1.160618685591e+06 -1.160649593865e+06 2.417046850396e-05 -5.891411008610e-17 1.570140319021e-09 0.000000000000e+00 0.000000000000e+00 
2.000000000000e+00 9.000000000000e+00 0.000000000000e+00 2.992832381305e+02 5.957056321969e-05 -1.413123282380e-09 -6.848565980723e+05 7.228929395920e-05 -4.861264033922e+05 -4.861511299736e+05 -1.009423777941e-05 7.344592266255e-15 1.256110339275e-09 0.000000000000e+00 0.000000000000e+00 
2.000000000000e+00 1.000000000000e+01 0.000000000000e+00 2.992832381307e+02 5.957056322185e-05 0.000000000000e+00 -6.848529696930e+05 1.379706233672e-05 -4.861165934538e+05 -4.861475016518e+05 -1.009423777649e-05 1.401781533411e-15 1.570136457279e-09 0.000000000000e+00 0.000000000000e+00 
3.000000000000e+00 9.000000000000e+00 0.000000000000e+00 2.982121072567e+02 4.388590266006e-05 -1.413120561186e-09 -6.848565980845e+05 1.002131191465e-05 -2.660310183459e+05 -2.660557449390e+05 -2.127508333979e-05 1.018165290529e-15 1.256110927486e-09 0.000000000000e+00 0.000000000000e+00 
3.000000000000e+00 1.000000000000e+01 0.000000000000e+00 2.982121072550e+02 4.388590266025e-05 0.000000000000e+00 -6.848529695334e+05 -2.401397641390e-07 -2.660212081790e+05 -2.660521162381e+05 -2.127508334740e-05 -2.439820003652e-17 1.570129403969e-09 0.000000000000e+00 0.000000000000e+00 
4.000000000000e+00 9.000000000000e+00 0.000000000000e+00 2.981161313870e+02 2.210990416560e-05 -1.413122645318e-09 -6.848565980591e+05 -6.410803161330e-05 -2.463099492621e+05 -2.463346758311e+05 -2.227691364918e-05 -6.513376011912e-15 1.256109707746e-09 0.000000000000e+00 0.000000000000e+00 
4.000000000000e+00 1.000000000000e+01 0.000000000000e+00 2.981161313872e+02 2.210990416380e-05 0.000000000000e+00 -6.848529696762e+05 -1.035280805933e-05 -2.463001393262e+05 -2.463310475083e+05 -2.227691364613e-05 -1.051845298827e-15 1.570135650603e-09 0.000000000000e+00 0.000000000000e+00 
5.000000000000e+00 9.000000000000e+00 0.000000000000e+00 2.981481305803e+02 4.081175575809e-15 -1.413124164542e-09 -6.848565980797e+05 -8.212562845631e-06 -2.528851259440e+05 -2.529098525318e+05 -2.194289467383e-05 -8.343963851161e-16 1.256110661428e-09 0.000000000000e+00 0.000000000000e+00 
5.000000000000e+00 1.000000000000e+01 0.000000000000e+00 2.981481305804e+02 3.808628451117e-15 0.000000000000e+00 -6.848529697217e+05 5.045660495854e-07 -2.528753159607e+05 -2.529062241875e+05 -2.194289467314e-05 5.126391063788e-17 1.570137917926e-09 0.000000000000e+00 0.000000000000e+00 
0.000000000000e+00 8.000000000000e+00 0.000000000000e+00 3.080000000000e+02 0.000000000000e+00 -2.512219674601e-09 -6.848602263906e+05 -2.508173390253e-07 -2.277251666064e+06 -2.277270210962e+06 8.089442721623e-05 -2.548304164497e-17 9.420808022980e-10 0.000000000000e+00 0.000000000000e+00 
1.000000000000e+00 8.000000000000e+00 0.000000000000e+00 3.025658149786e+02 5.253244785825e-05 -2.512219589672e-09 -6.848602263659e+05 5.364989339442e-06 -1.160638305511e+06 -1.160656850390e+06 2.417046850044e-05 5.450829168873e-16 9.420798466219e-10 0.000000000000e+00 0.000000000000e+00 
2.000000000000e+00 8.000000000000e+00 0.000000000000e+00 2.992832381301e+02 5.957056321776e-05 -2.512219279280e-09 -6.848602263934e+05 4.275053480587e-06 -4.861362133349e+05 -4.861547582425e+05 -1.009423778206e-05 4.343454336277e-16 9.420813084048e-10 0.000000000000e+00 0.000000000000e+00 
3.000000000000e+00 8.000000000000e+00 0.000000000000e+00 2.982121072577e+02 4.388590265994e-05 -2.512219452768e-09 -6.848602265356e+05 -1.420599536176e-05 -2.660408284838e+05 -2.660593735174e+05 -2.127508333333e-05 -1.443329128755e-15 9.420877061987e-10 0.000000000000e+00 0.000000000000e+00 
4.000000000000e+00 8.000000000000e+00 0.000000000000e+00 2.981161313872e+02 2.210990416763e-05 -2.512220333219e-09 -6.848602264836e+05 -1.571481800021e-05 -2.463197592358e+05 -2.463383042276e+05 -2.227691365061e-05 -1.596625508822e-15 9.420855815094e-10 0.000000000000e+00 0.000000000000e+00 
5.000000000000e+00 8.000000000000e+00 0.000000000000e+00 2.981481305800e+02 4.469305097479e-15 -2.512220744724e-09 -6.848602264133e+05 -2.090407900275e-06 -2.528949358911e+05 -2.529134808181e+05 -2.194289467624e-05 -2.123854426680e-16 9.420822915013e-10 0.000000000000e+00 0.000000000000e+00 
0.000000000000e+00 7.000000000000e+00 0.000000000000e+00 3.080000000000e+02 0.000000000000e+00 -3.297287336398e-09 -6.848638547672e+05 2.844225219429e-06 -2.277261476040e+06 -2.277273839317e+06 8.089442721513e-05 2.889732822939e-16 6.280544958708e-10 0.000000000000e+00 0.000000000000e+00 
1.000000000000e+00 7.000000000000e+00 0.000000000000e+00 3.025658149789e+02 5.253244785803e-05 -3.297287209163e-09 -6.848638547830e+05 5.149051309534e-07 -1.160648115522e+06 -1.160660478815e+06 2.417046850082e-05 5.231436130487e-17 6.280552603838e-10 0.000000000000e+00 0.000000000000e+00 
2.000000000000e+00 7.000000000000e+00 0.000000000000e+00 2.992832381307e+02 5.957056321898e-05 -3.297287962461e-09 -6.848638548003e+05 -3.833309873864e-05 -4.861460234059e+05 -4.861583867132e+05 -1.009423777882e-05 -3.894642831846e-15 6.280560089661e-10 0.000000000000e+00 0.000000000000e+00 
3.000000000000e+00 7.000000000000e+00 0.000000000000e+00 2.982121072567e+02 4.388590266123e-05 -3.297289897815e-09 -6.848638547464e+05 -2.919952442862e-05 -2.660506384080e+05 -2.660630016642e+05 -2.127508333658e-05 -2.966671681947e-15 6.280534134809e-10 0.000000000000e+00 0.000000000000e+00 
4.000000000000e+00 7.000000000000e+00 0.000000000000e+00 2.981161313868e+02 2.210990416731e-05 -3.297290060394e-09 -6.848638547578e+05 1.670093210471e-05 -2.463295692191e+05 -2.463419324868e+05 -2.227691365137e-05 1.696814701838e-15 6.280539978059e-10 0.000000000000e+00 0.000000000000e+00 
5.000000000000e+00 7.000000000000e+00 0.000000000000e+00 2.981481305802e+02 4.388691466735e-15 -3.297289471463e-09 -6.848638547781e+05 3.778933001521e-06 -2.529047459316e+05 -2.529171092186e+05 -2.194289467442e-05 3.839395929545e-16 6.280549764700e-10 0.000000000000e+00 0.000000000000e+00 
0.000000000000e+00 6.000000000000e+00 0.000000000000e+00 3.080000000000e+02 0.000000000000e+00 -3.768328324767e-09 -6.848674831328e+05 1.332456614233e-06 -2.277271286032e+06 -2.277277467674e+06 8.089442721468e-05 1.353775920060e-16 3.140273983823e-10 0.000000000000e+00 0.000000000000e+00 
1.000000000000e+00 6.000000000000e+00 0.000000000000e+00 3.025658149789e+02 5.253244785833e-05 -3.768328370234e-09 -6.848674831282e+05 -5.364521242414e-06 -1.160657925547e+06 -1.160664107183e+06 2.417046850201e-05 -5.450353582293e-16 3.140271365756e-10 0.000000000000e+00 0.000000000000e+00 
2.000000000000e+00 6.000000000000e+00 0.000000000000e+00 2.992832381305e+02 5.957056322027e-05 -3.768329048666e-09 -6.848674831124e+05 -2.220683561768e-05 -4.861558334188e+05 -4.861620150399e+05 -1.009423777808e-05 -2.256214498757e-15 3.140263540199e-10 0.000000000000e+00 0.000000000000e+00 
3.000000000000e+00 6.000000000000e+00 0.000000000000e+00 2.982121072567e+02 4.388590266208e-05 -3.768330040002e-09 -6.848674831168e+05 -1.096990640538e-05 -2.660604483740e+05 -2.660666300006e+05 -2.127508333830e-05 -1.114542490787e-15 3.140266299060e-10 0.000000000000e+00 0.000000000000e+00 
4.000000000000e+00 6.000000000000e+00 0.000000000000e+00 2.981161313866e+02 2.210990416702e-05 -3.768330079351e-09 -6.848674831022e+05 4.779577706317e-06 -2.463393792083e+05 -2.463455608208e+05 -2.227691365190e-05 4.856050949619e-16 3.140259171229e-10 0.000000000000e+00 0.000000000000e+00 
5.000000000000e+00 6.000000000000e+00 0.000000000000e+00 2.981481305802e+02 4.389971069232e-15 -3.768330058125e-09 -6.848674831123e+05 -4.287168829947e-06 -2.529145559519e+05 -2.529207375729e+05 -2.194289467340e-05 -4.355763531227e-16 3.140263449672e-10 0.000000000000e+00 0.000000000000e+00 
0.000000000000e+00 5.000000000000e+00 0.000000000000e+00 3.080000000000e+02 0.000000000000e+00 -3.925342104856e-09 -6.848711114949e+05 7.283356924206e-07 -2.277281096026e+06 -2.277281096030e+06 8.089442721437e-05 7.399890634993e-17 2.069731902628e-16 0.000000000000e+00 0.000000000000e+00 
1.000000000000e+00 5.000000000000e+00 0.000000000000e+00 3.025658149791e+02 5.253244785845e-05 -3.925342089691e-09 -6.848711114988e+05 -6.340420131252e-07 -1.160667735557e+06 -1.160667735564e+06 2.417046850249e-05 -6.441866853352e-17 3.545070221757e-16 0.000000000000e+00 0.000000000000e+00 
2.000000000000e+00 5.000000000000e+00 0.000000000000e+00 2.992832381307e+02 5.957056322104e-05 -3.925342301089e-09 -6.848711114941e+05 -7.372981473071e-06 -4.861656434378e+05 -4.861656434399e+05 -1.009423777715e-05 -7.490949176640e-16 1.088454831898e-16 0.000000000000e+00 0.000000000000e+00 
3.000000000000e+00 5.000000000000e+00 0.000000000000e+00 2.982121072564e+02 4.388590266249e-05 -3.925342663130e-09 -6.848711114607e+05 -4.616568367810e-06 -2.660702583380e+05 -2.660702583102e+05 -2.127508334005e-05 -4.690433461695e-16 -1.415079096782e-15 0.000000000000e+00 0.000000000000e+00 
4.000000000000e+00 5.000000000000e+00 0.000000000000e+00 2.981161313868e+02 2.210990416688e-05 -3.925342726835e-09 -6.848711114793e+05 1.012585244298e-06 -2.463491892224e+05 -2.463491892103e+05 -2.227691365126e-05 1.028786608207e-16 -6.131968905780e-16 0.000000000000e+00 0.000000000000e+00 
5.000000000000e+00 5.000000000000e+00 0.000000000000e+00 2.981481305802e+02 4.731977567156e-15 -3.925342852746e-09 -6.848711114750e+05 -7.681473248405e-06 -2.529243659605e+05 -2.529243659446e+05 -2.194289467294e-05 -7.804376820379e-16 -8.071284449331e-16 0.000000000000e+00 0.000000000000e+00 
0.000000000000e+00 4.000000000000e+00 0.000000000000e+00 3.080000000000e+02 0.000000000000e+00 -3.768328585733e-09 -6.848747398524e+05 -3.345573954842e-09 -2.277290906025e+06 -2.277284724386e+06 8.089442721431e-05 -3.399103138120e-19 -3.140272490524e-10 0.000000000000e+00 0.000000000000e+00 
1.000000000000e+00 4.000000000000e+00 0.000000000000e+00 3.025658149791e+02 5.253244785849e-05 -3.768328572644e-09 -6.848747398502e+05 1.905066993631e-07 -1.160677545560e+06 -1.160671363919e+06 2.417046850271e-05 1.935548065529e-17 -3.140273668982e-10 0.000000000000e+00 0.000000000000e+00 
2.000000000000e+00 4.000000000000e+00 0.000000000000e+00 2.992832381307e+02 5.957056322105e-05 -3.768328515963e-09 -6.848747398443e+05 3.564409130178e-06 -4.861754534276e+05 -4.861692717811e+05 -1.009423777761e-05 3.621439676261e-16 -3.140276396820e-10 0.000000000000e+00 0.000000000000e+00 
3.000000000000e+00 4.000000000000e+00 0.000000000000e+00 2.982121072567e+02 4.388590266257e-05 -3.768328362246e-09 -6.848747398521e+05 7.945628865811e-07 -2.660800683546e+05 -2.660738867156e+05 -2.127508333933e-05 8.072758927664e-17 -3.140272623509e-10 0.000000000000e+00 0.000000000000e+00 
4.000000000000e+00 4.000000000000e+00 0.000000000000e+00 2.981161313868e+02 2.210990416701e-05 -3.768328487844e-09 -6.848747398394e+05 -3.803824018280e-06 -2.463589992104e+05 -2.463528175596e+05 -2.227691365181e-05 -3.864685202573e-16 -3.140278589581e-10 0.000000000000e+00 0.000000000000e+00 
5.000000000000e+00 4.000000000000e+00 0.000000000000e+00 2.981481305804e+02 5.092588910206e-15 -3.768328728894e-09 -6.848747398493e+05 -7.837225672682e-06 -2.529341759787e+05 -2.529279943366e+05 -2.194289467205e-05 -7.962621283445e-16 -3.140274185957e-10 0.000000000000e+00 0.000000000000e+00 
0.000000000000e+00 3.000000000000e+00 0.000000000000e+00 3.080000000000e+02 0.000000000000e+00 -3.297287609350e-09 -6.848783682099e+05 -6.962063861797e-08 -2.277300716023e+06 -2.277288352742e+06 8.089442721424e-05 -7.073456883586e-18 -6.280546765688e-10 0.000000000000e+00 0.000000000000e+00 
1.000000000000e+00 3.000000000000e+00 0.000000000000e+00 3.025658149791e+02 5.253244785839e-05 -3.297287540737e-09 -6.848783682099e+05 3.176155931149e-06 -1.160687355557e+06 -1.160674992276e+06 2.417046850255e-05 3.226974426047e-16 -6.280546912048e-10 0.000000000000e+00 0.000000000000e+00 
2.000000000000e+00 3.000000000000e+00 0.000000000000e+00 2.992832381307e+02 5.957056322088e-05 -3.297287314494e-09 -6.848783682077e+05 5.398194586070e-06 -4.861852634294e+05 -4.861729001458e+05 -1.009423777755e-05 5.484565699447e-16 -6.280548085552e-10 0.000000000000e+00 0.000000000000e+00 
3.000000000000e+00 3.000000000000e+00 0.000000000000e+00 2.982121072566e+02 4.388590266245e-05 -3.297287055435e-09 -6.848783681974e+05 4.179034090850e-06 -2.660898783550e+05 -2.660775150617e+05 -2.127508333929e-05 4.245898636303e-16 -6.280553026181e-10 0.000000000000e+00 0.000000000000e+00 
4.000000000000e+00 3.000000000000e+00 0.000000000000e+00 2.981161313868e+02 2.210990416715e-05 -3.297286971334e-09 -6.848783681992e+05 -1.895600424558e-06 -2.463688092199e+05 -2.463564459288e+05 -2.227691365134e-05 -1.925930031351e-16 -6.280551879886e-10 0.000000000000e+00 0.000000000000e+00 
5.000000000000e+00 3.000000000000e+00 0.000000000000e+00 2.981481305804e+02 5.565383352667e-15 -3.297287287902e-09 -6.848783681940e+05 -1.001007884410e-05 -2.529439859816e+05 -2.529316226848e+05 -2.194289467186e-05 -1.017024010561e-15 -6.280554761348e-10 0.000000000000e+00 0.000000000000e+00 
0.000000000000e+00 2.000000000000e+00 0.000000000000e+00 3.080000000000e+02 0.000000000000e+00 -2.512219229537e-09 -6.848819965676e+05 -3.660700208038e-07 -2.277310526021e+06 -2.277291981098e+06 8.089442721416e-05 -3.719271411367e-17 -9.420820939168e-10 0.000000000000e+00 0.000000000000e+00 
1.000000000000e+00 2.000000000000e+00 0.000000000000e+00 3.025658149791e+02 5.253244785824e-05 -2.512219185862e-09 -6.848819965698e+05 2.545742720044e-06 -1.160697165552e+06 -1.160678620631e+06 2.417046850230e-05 2.586474603564e-16 -9.420819887825e-10 0.000000000000e+00 0.000000000000e+00 
2.000000000000e+00 2.000000000000e+00 0.000000000000e+00 2.992832381307e+02 5.957056322046e-05 -2.512218874335e-09 -6.848819965701e+05 1.122463810548e-05 -4.861950734240e+05 -4.861765285022e+05 -1.009423777785e-05 1.140423231517e-15 -9.420820275421e-10 0.000000000000e+00 0.000000000000e+00 
3.000000000000e+00 2.000000000000e+00 0.000000000000e+00 2.982121072567e+02 4.388590266201e-05 -2.512218167331e-09 -6.848819965603e+05 1.737899669377e-05 -2.660996883622e+05 -2.660811434314e+05 -2.127508333895e-05 1.765706064087e-15 -9.420824849487e-10 0.000000000000e+00 0.000000000000e+00 
4.000000000000e+00 2.000000000000e+00 0.000000000000e+00 2.981161313868e+02 2.210990416723e-05 -2.512217667834e-09 -6.848819965378e+05 -1.404479017537e-06 -2.463786192314e+05 -2.463600742800e+05 -2.227691365070e-05 -1.426950681818e-16 -9.420835299543e-10 0.000000000000e+00 0.000000000000e+00 
5.000000000000e+00 2.000000000000e+00 0.000000000000e+00 2.981481305805e+02 6.189030395791e-15 -2.512218269206e-09 -6.848819965594e+05 -1.842894158479e-05 -2.529537959906e+05 -2.529352510587e+05 -2.194289467144e-05 -1.872380465015e-15 -9.420825440823e-10 0.000000000000e+00 0.000000000000e+00 
0.000000000000e+00 1.000000000000e+00 0.000000000000e+00 3.080000000000e+02 0.000000000000e+00 -1.413123353005e-09 -6.848856249221e+05 4.225742584169e-07 -2.277320336023e+06 -2.277295609454e+06 8.089442721424e-05 4.293354465515e-17 -1.256109683039e-09 0.000000000000e+00 0.000000000000e+00 
1.000000000000e+00 1.000000000000e+00 0.000000000000e+00 3.025658149790e+02 5.253244785821e-05 -1.413123386635e-09 -6.848856249221e+05 -3.738069228904e-06 -1.160706975549e+06 -1.160682248980e+06 2.417046850216e-05 -3.797878336567e-16 -1.256109661477e-09 0.000000000000e+00 0.000000000000e+00 
2.000000000000e+00 1.000000000000e+00 0.000000000000e+00 2.992832381307e+02 5.957056321994e-05 -1.413123393092e-09 -6.848856249390e+05 8.085441902157e-06 -4.862048834063e+05 -4.861801568543e+05 -1.009423777870e-05 8.214808972592e-16 -1.256108838047e-09 0.000000000000e+00 0.000000000000e+00 
3.000000000000e+00 1.000000000000e+00 0.000000000000e+00 2.982121072568e+02 4.388590266102e-05 -1.413122594489e-09 -6.848856249422e+05 2.130381890376e-05 -2.661094983571e+05 -2.660847718085e+05 -2.127508333919e-05 2.164468000622e-15 -1.256108667362e-09 0.000000000000e+00 0.000000000000e+00 
4.000000000000e+00 1.000000000000e+00 0.000000000000e+00 2.981161313874e+02 2.210990416723e-05 -1.413121980580e-09 -6.848856249610e+05 2.514028884737e-06 -2.463884292826e+05 -2.463637027504e+05 -2.227691364830e-05 2.554253346893e-16 -1.256107834399e-09 0.000000000000e+00 0.000000000000e+00 
5.000000000000e+00 1.000000000000e+00 0.000000000000e+00 2.981481305805e+02 7.096153179578e-15 -1.413122359455e-09 -6.848856249291e+05 -1.464128494248e-05 -2.529636059807e+05 -2.529388794193e+05 -2.194289467189e-05 -1.487554550156e-15 -1.256109315323e-09 0.000000000000e+00 0.000000000000e+00 
0.000000000000e+00 0.000000000000e+00 0.000000000000e+00 3.080000000000e+02 0.000000000000e+00 0.000000000000e+00 -6.848892532824e+05 5.066872577946e-07 -2.277330146020e+06 -2.277299237811e+06 8.089442721404e-05 5.147942539193e-17 -1.570137009741e-09 0.000000000000e+00 0.000000000000e+00 
1.000000000000e+00 0.000000000000e+00 0.000000000000e+00 3.025658149791e+02 5.253244785837e-05 0.000000000000e+00 -6.848892532806e+05 -1.993116266915e-06 -1.160716785562e+06 -1.160685877351e+06 2.417046850277e-05 -2.025006127186e-16 -1.570137106473e-09 0.000000000000e+00 0.000000000000e+00 
2.000000000000e+00 0.000000000000e+00 0.000000000000e+00 2.992832381304e+02 5.957056321976e-05 0.000000000000e+00 -6.848892532583e+05 -1.863665853608e-07 -4.862146933756e+05 -4.861837851459e+05 -1.009423778011e-05 -1.893484507266e-17 -1.570138068649e-09 0.000000000000e+00 0.000000000000e+00 
3.000000000000e+00 0.000000000000e+00 0.000000000000e+00 2.982121072568e+02 4.388590266051e-05 0.000000000000e+00 -6.848892532930e+05 1.287412711957e-06 -2.661193083715e+05 -2.660884001728e+05 -2.127508333851e-05 1.308011315348e-16 -1.570136493396e-09 0.000000000000e+00 0.000000000000e+00 
4.000000000000e+00 0.000000000000e+00 0.000000000000e+00 2.981161313873e+02 2.210990416710e-05 0.000000000000e+00 -6.848892533033e+05 1.216539910140e-06 -2.463982392844e+05 -2.463673310953e+05 -2.227691364817e-05 1.236004548702e-16 -1.570136009977e-09 0.000000000000e+00 0.000000000000e+00 
5.000000000000e+00 0.000000000000e+00 0.000000000000e+00 2.981481305807e+02 7.365459806882e-15 0.000000000000e+00 -6.848892533165e+05 1.003606827418e-06 -2.529734159960e+05 -2.529425078200e+05 -2.194289467122e-05 1.019664536657e-16 -1.570135344130e-09 0.000000000000e+00 0.000000000000e+00 
6.000000000000e+00 9.000000000000e+00 0.000000000000e+00 2.981161313872e+02 -2.210990415689e-05 -1.413124172866e-09 -6.848565980658e+05 -1.791123110829e-06 -2.463099492838e+05 -2.463346758596e+05 -2.227691364807e-05 -1.819781080602e-16 1.256110051412e-09 0.000000000000e+00 0.000000000000e+00 
6.000000000000e+00 1.000000000000e+01 0.000000000000e+00 2.981161313872e+02 -2.210990415694e-05 0.000000000000e+00 -6.848529697243e+05 -1.361607576762e-07 -2.463001392767e+05 -2.463310475102e+05 -2.227691364847e-05 -1.383393297990e-17 1.570138259621e-09 0.000000000000e+00 0.000000000000e+00 
7.000000000000e+00 9.000000000000e+00 0.000000000000e+00 2.982121072566e+02 -4.388590265120e-05 -1.413124429275e-09 -6.848565980864e+05 3.934067868910e-06 -2.660310183289e+05 -2.660557449240e+05 -2.127508334065e-05 3.997012954813e-16 1.256111033059e-09 0.000000000000e+00 0.000000000000e+00 
7.000000000000e+00 1.000000000000e+01 0.000000000000e+00 2.982121072567e+02 -4.388590265102e-05 0.000000000000e+00 -6.848529697169e+05 3.460446853997e-06 -2.660212083514e+05 -2.660521165771e+05 -2.127508333950e-05 3.515814003661e-16 1.570137865956e-09 0.000000000000e+00 0.000000000000e+00 
8.000000000000e+00 9.000000000000e+00 0.000000000000e+00 2.992832381301e+02 -5.957056321412e-05 -1.413124503953e-09 -6.848565980889e+05 -2.904681619769e-05 -4.861264032810e+05 -4.861511298784e+05 -1.009423778509e-05 -2.951156525685e-15 1.256111148251e-09 0.000000000000e+00 0.000000000000e+00 
8.000000000000e+00 1.000000000000e+01 0.000000000000e+00 2.992832381296e+02 -5.957056321504e-05 0.000000000000e+00 -6.848529697037e+05 -5.848325283697e-06 -4.861165931973e+05 -4.861475014168e+05 -1.009423778898e-05 -5.941898488236e-16 1.570137550751e-09 0.000000000000e+00 0.000000000000e+00 
9.000000000000e+00 9.000000000000e+00 0.000000000000e+00 3.025658149788e+02 -5.253244785676e-05 -1.413126402134e-09 -6.848565980723e+05 -2.172110270430e-05 -1.160628495502e+06 -1.160653222083e+06 2.417046849976e-05 -2.206864034757e-15 1.256110350840e-09 0.000000000000e+00 0.000000000000e+00 
9.000000000000e+00 1.000000000000e+01 0.000000000000e+00 3.025658149797e+02 -5.253244785743e-05 0.000000000000e+00 -6.848529698211e+05 -3.217179185432e-06 -1.160618685600e+06 -1.160649593922e+06 2.417046850434e-05 -3.268654052399e-16 1.570142786840e-09 0.000000000000e+00 0.000000000000e+00 
1.000000000000e+01 9.000000000000e+00 0.000000000000e+00 3.080000000000e+02 0.000000000000e+00 -1.413126198975e-09 -6.848565980819e+05 1.175182148240e-05 -2.277241856015e+06 -2.277266582605e+06 8.089442721379e-05 1.193985062612e-15 1.256110805327e-09 0.000000000000e+00 0.000000000000e+00 
1.000000000000e+01 1.000000000000e+01 0.000000000000e+00 3.080000000000e+02 0.000000000000e+00 0.000000000000e+00 -6.848529697867e+05 3.799882788140e-06 -2.277232045950e+06 -2.277262954248e+06 8.089442721064e-05 3.860680912750e-16 1.570141533956e-09 0.000000000000e+00 0.000000000000e+00 
6.000000000000e+00 8.000000000000e+00 0.000000000000e+00 2.981161313874e+02 -2.210990415678e-05 -2.512220827446e-09 -6.848602264388e+05 -1.415186460655e-06 -2.463197593226e+05 -2.463383042690e+05 -2.227691364623e-05 -1.437829444026e-16 9.420832785153e-10 0.000000000000e+00 0.000000000000e+00 
7.000000000000e+00 8.000000000000e+00 0.000000000000e+00 2.982121072563e+02 -4.388590265102e-05 -2.512221043699e-09 -6.848602264123e+05 -7.461049814520e-06 -2.660408282940e+05 -2.660593732172e+05 -2.127508334231e-05 -7.580426611553e-16 9.420820967625e-10 0.000000000000e+00 0.000000000000e+00 
8.000000000000e+00 8.000000000000e+00 0.000000000000e+00 2.992832381304e+02 -5.957056321316e-05 -2.512221538049e-09 -6.848602264425e+05 -1.240091949775e-05 -4.861362133498e+05 -4.861547582968e+05 -1.009423778180e-05 -1.259933420972e-15 9.420833066037e-10 0.000000000000e+00 0.000000000000e+00 
9.000000000000e+00 8.000000000000e+00 0.000000000000e+00 3.025658149782e+02 -5.253244785607e-05 -2.512222036283e-09 -6.848602263795e+05 -4.475020201548e-06 -1.160638305424e+06 -1.160656850317e+06 2.417046849601e-05 -4.546620524773e-16 9.420805492518e-10 0.000000000000e+00 0.000000000000e+00 
1.000000000000e+01 8.000000000000e+00 0.000000000000e+00 3.080000000000e+02 0.000000000000e+00 -2.512222064085e-09 -6.848602263946e+05 1.179454723878e-06 -2.277251666059e+06 -2.277270210962e+06 8.089442721601e-05 1.198325999460e-16 9.420810564856e-10 0.000000000000e+00 0.000000000000e+00 
6.000000000000e+00 7.000000000000e+00 0.000000000000e+00 2.981161313872e+02 -2.210990415664e-05 -3.297289753308e-09 -6.848638547704e+05 -5.151071309234e-06 -2.463295692913e+05 -2.463419325713e+05 -2.227691364772e-05 -5.233488450182e-16 6.280546222764e-10 0.000000000000e+00 0.000000000000e+00 
7.000000000000e+00 7.000000000000e+00 0.000000000000e+00 2.982121072566e+02 -4.388590265064e-05 -3.297289876587e-09 -6.848638547912e+05 -7.426215441680e-06 -2.660506383390e+05 -2.660630016376e+05 -2.127508334020e-05 -7.545034888747e-16 6.280555705329e-10 0.000000000000e+00 0.000000000000e+00 
8.000000000000e+00 7.000000000000e+00 0.000000000000e+00 2.992832381300e+02 -5.957056321289e-05 -3.297290327831e-09 -6.848638547641e+05 -2.617666667862e-07 -4.861460232954e+05 -4.861583865696e+05 -1.009423778428e-05 -2.659549334548e-17 6.280543294529e-10 0.000000000000e+00 0.000000000000e+00 
9.000000000000e+00 7.000000000000e+00 0.000000000000e+00 3.025658149786e+02 -5.253244785620e-05 -3.297289976887e-09 -6.848638547841e+05 6.347034409900e-06 -1.160648115460e+06 -1.160660478753e+06 2.417046849760e-05 6.448586960458e-16 6.280552750597e-10 0.000000000000e+00 0.000000000000e+00 
1.000000000000e+01 7.000000000000e+00 0.000000000000e+00 3.080000000000e+02 0.000000000000e+00 -3.297290015644e-09 -6.848638547739e+05 -2.835051108001e-06 -2.277261476034e+06 -2.277273839317e+06 8.089442721481e-05 -2.880411925729e-16 6.280547958239e-10 0.000000000000e+00 0.000000000000e+00 
6.000000000000e+00 6.000000000000e+00 0.000000000000e+00 2.981161313871e+02 -2.210990415624e-05 -3.768330461500e-09 -6.848674831193e+05 -1.091535454208e-05 -2.463393792901e+05 -2.463455609184e+05 -2.227691364780e-05 -1.109000021476e-15 3.140267189911e-10 0.000000000000e+00 0.000000000000e+00 
7.000000000000e+00 6.000000000000e+00 0.000000000000e+00 2.982121072565e+02 -4.388590265032e-05 -3.768330927850e-09 -6.848674831185e+05 -6.588181241738e-06 -2.660604483346e+05 -2.660666299619e+05 -2.127508334036e-05 -6.693592141605e-16 3.140266631938e-10 0.000000000000e+00 0.000000000000e+00 
8.000000000000e+00 6.000000000000e+00 0.000000000000e+00 2.992832381299e+02 -5.957056321287e-05 -3.768331104542e-09 -6.848674831255e+05 -8.086498930421e-07 -4.861558332865e+05 -4.861620149215e+05 -1.009423778476e-05 -8.215882913308e-17 3.140270553945e-10 0.000000000000e+00 0.000000000000e+00 
9.000000000000e+00 6.000000000000e+00 0.000000000000e+00 3.025658149785e+02 -5.253244785632e-05 -3.768331110709e-09 -6.848674831277e+05 7.461375594323e-07 -1.160657925465e+06 -1.160664107101e+06 2.417046849786e-05 7.580757603832e-17 3.140271229296e-10 0.000000000000e+00 0.000000000000e+00 
1.000000000000e+01 6.000000000000e+00 0.000000000000e+00 3.080000000000e+02 0.000000000000e+00 -3.768331079770e-09 -6.848674831304e+05 3.820375827623e-07 -2.277271286034e+06 -2.277277467674e+06 8.089442721480e-05 3.881501840865e-17 3.140272793432e-10 0.000000000000e+00 0.000000000000e+00 
6.000000000000e+00 5.000000000000e+00 0.000000000000e+00 2.981161313871e+02 -2.210990415565e-05 -3.925343452454e-09 -6.848711114772e+05 -1.422876325252e-05 -2.463491892890e+05 -2.463491892754e+05 -2.227691364785e-05 -1.445642346456e-15 -6.924501258360e-16 0.000000000000e+00 0.000000000000e+00 
7.000000000000e+00 5.000000000000e+00 0.000000000000e+00 2.982121072565e+02 -4.388590264991e-05 -3.925344050341e-09 -6.848711114816e+05 -9.878126899605e-06 -2.660702583285e+05 -2.660702583191e+05 -2.127508334065e-05 -1.003617693000e-15 -4.762025333350e-16 0.000000000000e+00 0.000000000000e+00 
8.000000000000e+00 5.000000000000e+00 0.000000000000e+00 2.992832381299e+02 -5.957056321271e-05 -3.925344411776e-09 -6.848711114835e+05 -4.626078217249e-06 -4.861656432831e+05 -4.861656432756e+05 -1.009423778496e-05 -4.700095468725e-16 -3.803789530191e-16 0.000000000000e+00 0.000000000000e+00 
9.000000000000e+00 5.000000000000e+00 0.000000000000e+00 3.025658149785e+02 -5.253244785630e-05 -3.925344544433e-09 -6.848711114855e+05 -1.166732696083e-06 -1.160667735463e+06 -1.160667735458e+06 2.417046849778e-05 -1.185400419220e-16 -2.832652536828e-16 0.000000000000e+00 0.000000000000e+00 
1.000000000000e+01 5.000000000000e+00 0.000000000000e+00 3.080000000000e+02 0.000000000000e+00 -3.925344570173e-09 -6.848711114861e+05 2.372200557974e-08 -2.277281096035e+06 -2.277281096030e+06 8.089442721483e-05 2.410155766902e-18 -2.561597095575e-16 0.000000000000e+00 0.000000000000e+00 
6.000000000000e+00 4.000000000000e+00 0.000000000000e+00 2.981161313872e+02 -2.210990415493e-05 -3.768329314530e-09 -6.848747398452e+05 -1.400896417739e-05 -2.463589992870e+05 -2.463528176413e+05 -2.227691364796e-05 -1.423310760422e-15 -3.140275994546e-10 0.000000000000e+00 0.000000000000e+00 
7.000000000000e+00 4.000000000000e+00 0.000000000000e+00 2.982121072565e+02 -4.388590264937e-05 -3.768329965196e-09 -6.848747398435e+05 -1.114124105506e-05 -2.660800683226e+05 -2.660738866752e+05 -2.127508334095e-05 -1.131950091194e-15 -3.140276858471e-10 0.000000000000e+00 0.000000000000e+00 
8.000000000000e+00 4.000000000000e+00 0.000000000000e+00 2.992832381299e+02 -5.957056321245e-05 -3.768330381334e-09 -6.848747398435e+05 -5.649545114326e-06 -4.861754532786e+05 -4.861692716311e+05 -1.009423778519e-05 -5.739937836155e-16 -3.140276964244e-10 0.000000000000e+00 0.000000000000e+00 
9.000000000000e+00 4.000000000000e+00 0.000000000000e+00 3.025658149785e+02 -5.253244785622e-05 -3.768330559056e-09 -6.848747398438e+05 -1.656269363296e-06 -1.160677545460e+06 -1.160671363813e+06 2.417046849765e-05 -1.682769673109e-16 -3.140276751219e-10 0.000000000000e+00 0.000000000000e+00 
1.000000000000e+01 4.000000000000e+00 0.000000000000e+00 3.080000000000e+02 0.000000000000e+00 -3.768330586741e-09 -6.848747398429e+05 1.812349394940e-07 -2.277290906034e+06 -2.277284724386e+06 8.089442721478e-05 1.841346985259e-17 -3.140277119133e-10 0.000000000000e+00 0.000000000000e+00 
6.000000000000e+00 3.000000000000e+00 0.000000000000e+00 2.981161313872e+02 -2.210990415427e-05 -3.297287918700e-09 -6.848783681999e+05 -1.424131188287e-05 -2.463688092903e+05 -2.463564459991e+05 -2.227691364780e-05 -1.446917287299e-15 -6.280551916665e-10 0.000000000000e+00 0.000000000000e+00 
7.000000000000e+00 3.000000000000e+00 0.000000000000e+00 2.982121072565e+02 -4.388590264878e-05 -3.297288625451e-09 -6.848783682036e+05 -1.355781940553e-05 -2.660898783173e+05 -2.660775150298e+05 -2.127508334123e-05 -1.377474451602e-15 -6.280550053430e-10 0.000000000000e+00 0.000000000000e+00 
8.000000000000e+00 3.000000000000e+00 0.000000000000e+00 2.992832381299e+02 -5.957056321218e-05 -3.297289110280e-09 -6.848783682078e+05 -4.638414063501e-06 -4.861852632724e+05 -4.861728999887e+05 -1.009423778553e-05 -4.712628688517e-16 -6.280548126351e-10 0.000000000000e+00 0.000000000000e+00 
9.000000000000e+00 3.000000000000e+00 0.000000000000e+00 3.025658149785e+02 -5.253244785619e-05 -3.297289136882e-09 -6.848783681997e+05 1.759126903785e-06 -1.160687355457e+06 -1.160674992166e+06 2.417046849751e-05 1.787272934246e-16 -6.280551737081e-10 0.000000000000e+00 0.000000000000e+00 
1.000000000000e+01 3.000000000000e+00 0.000000000000e+00 3.080000000000e+02 0.000000000000e+00 -3.297289104440e-09 -6.848783681978e+05 1.078041665032e-07 -2.277300716035e+06 -2.277288352742e+06 8.089442721485e-05 1.095290331672e-17 -6.280552798779e-10 0.000000000000e+00 0.000000000000e+00 
6.000000000000e+00 2.000000000000e+00 0.000000000000e+00 2.981161313872e+02 -2.210990415347e-05 -2.512219101837e-09 -6.848819965617e+05 -1.695118082184e-05 -2.463786192899e+05 -2.463600743604e+05 -2.227691364783e-05 -1.722239971499e-15 -9.420824189942e-10 0.000000000000e+00 0.000000000000e+00 
7.000000000000e+00 2.000000000000e+00 0.000000000000e+00 2.982121072565e+02 -4.388590264809e-05 -2.512219876645e-09 -6.848819965611e+05 -1.335811384292e-05 -2.660996883141e+05 -2.660811433838e+05 -2.127508334140e-05 -1.357184366440e-15 -9.420824578701e-10 0.000000000000e+00 0.000000000000e+00 
8.000000000000e+00 2.000000000000e+00 0.000000000000e+00 2.992832381298e+02 -5.957056321203e-05 -2.512220245315e-09 -6.848819965514e+05 1.844085597017e-07 -4.861950732535e+05 -4.861765283141e+05 -1.009423778645e-05 1.873590966569e-17 -9.420829179745e-10 0.000000000000e+00 0.000000000000e+00 
9.000000000000e+00 2.000000000000e+00 0.000000000000e+00 3.025658149785e+02 -5.253244785633e-05 -2.512220072202e-09 -6.848819965499e+05 3.378856288729e-06 -1.160697165463e+06 -1.160678620523e+06 2.417046849781e-05 3.432917989349e-16 -9.420829803715e-10 0.000000000000e+00 0.000000000000e+00 
1.000000000000e+01 2.000000000000e+00 0.000000000000e+00 3.080000000000e+02 0.000000000000e+00 -2.512220055164e-09 -6.848819965540e+05 -9.518576223260e-07 -2.277310526036e+06 -2.277291981098e+06 8.089442721486e-05 -9.670873442832e-17 -9.420828099206e-10 0.000000000000e+00 0.000000000000e+00 
6.000000000000e+00 1.000000000000e+00 0.000000000000e+00 2.981161313872e+02 -2.210990415267e-05 -1.413123085621e-09 -6.848856249234e+05 -1.606367394969e-05 -2.463884292918e+05 -2.463637027245e+05 -2.227691364770e-05 -1.632069273289e-15 -1.256109617217e-09 0.000000000000e+00 0.000000000000e+00 
7.000000000000e+00 1.000000000000e+00 0.000000000000e+00 2.982121072564e+02 -4.388590264752e-05 -1.413123763633e-09 -6.848856249204e+05 -1.157088667256e-05 -2.661094983014e+05 -2.660847717314e+05 -2.127508334200e-05 -1.175602085933e-15 -1.256109756060e-09 0.000000000000e+00 0.000000000000e+00 
8.000000000000e+00 1.000000000000e+00 0.000000000000e+00 2.992832381298e+02 -5.957056321210e-05 -1.413124011107e-09 -6.848856249253e+05 3.151979159714e-06 -4.862048832388e+05 -4.861801566733e+05 -1.009423778720e-05 3.202410826269e-16 -1.256109527187e-09 0.000000000000e+00 0.000000000000e+00 
9.000000000000e+00 1.000000000000e+00 0.000000000000e+00 3.025658149787e+02 -5.253244785648e-05 -1.413123717518e-09 -6.848856249211e+05 5.099429755515e-06 -1.160706975476e+06 -1.160682248906e+06 2.417046849846e-05 5.181020631603e-16 -1.256109752769e-09 0.000000000000e+00 0.000000000000e+00 
1.000000000000e+01 1.000000000000e+00 0.000000000000e+00 3.080000000000e+02 0.000000000000e+00 -1.413123681230e-09 -6.848856249168e+05 -1.174995514243e-06 -2.277320336028e+06 -2.277295609454e+06 8.089442721451e-05 -1.193795442471e-16 -1.256109947331e-09 0.000000000000e+00 0.000000000000e+00 
6.000000000000e+00 0.000000000000e+00 0.000000000000e+00 2.981161313873e+02 -2.210990415219e-05 0.000000000000e+00 -6.848892532910e+05 -1.914618667051e-06 -2.463982392896e+05 -2.463673310895e+05 -2.227691364783e-05 -1.945252565724e-16 -1.570136562446e-09 0.000000000000e+00 0.000000000000e+00 
7.000000000000e+00 0.000000000000e+00 0.000000000000e+00 2.982121072563e+02 -4.388590264716e-05 0.000000000000e+00 -6.848892532648e+05 -1.763736557405e-06 -2.661193082981e+05 -2.660884000731e+05 -2.127508334214e-05 -1.791956342324e-16 -1.570137830405e-09 0.000000000000e+00 0.000000000000e+00 
8.000000000000e+00 0.000000000000e+00 0.000000000000e+00 2.992832381296e+02 -5.957056321217e-05 0.000000000000e+00 -6.848892532495e+05 4.138902394231e-07 -4.862146932211e+05 -4.861837849817e+05 -1.009423778801e-05 4.205124832539e-17 -1.570138560954e-09 0.000000000000e+00 0.000000000000e+00 
9.000000000000e+00 0.000000000000e+00 0.000000000000e+00 3.025658149787e+02 -5.253244785667e-05 0.000000000000e+00 -6.848892532702e+05 1.528984677515e-06 -1.160716785487e+06 -1.160685877266e+06 2.417046849898e-05 1.553448432355e-16 -1.570137652531e-09 0.000000000000e+00 0.000000000000e+00 
1.000000000000e+01 0.000000000000e+00 0.000000000000e+00 3.080000000000e+02 0.000000000000e+00 0.000000000000e+00 -6.848892532749e+05 -1.073373593954e-07 -2.277330146027e+06 -2.277299237811e+06 8.089442721442e-05 -1.090547571457e-17 -1.570137397510e-09 0.000000000000e+00 0.000000000000e+00 
1  2  3  4  
4  3  5  6  
6  5  7  8  
8  7  9  10  
10  9  11  12  
2  13  14  3  
3  14  15  5  
5  15  16  7  
7  16  17  9  
9  17  18  11  
13  19  20  14  
14  20  21  15  
15  21  22  16  
16  22  23  17  
17  23  24  18  
19  25  26  20  
20  26  27  21  
21  27  28  22  
22  28  29  23  
23  29  30  24  
25  31  32  26  
26  32  33  27  
27  33  34  28  
28  34  35  29  
29  35  36  30  
31  37  38  32  
32  38  39  33  
33  39  40  34  
34  40  41  35  
35  41  42  36  
37  43  44  38  
38  44  45  39  
39  45  46  40  
40  46  47  41  
41  47  48  42  
43  49  50  44  
44  50  51  45  
45  51  52  46  
46  52  53  47  
47  53  54  48  
49  55  56  50  
50  56  57  51  
51  57  58  52  
52  58  59  53  
53  59  60  54  
55  61  62  56  
56  62  63  57  
57  63  64  58  
58  64  65  59  
59  65  66  60  
12  11  67  68  
68  67  69  70  
70  69  71  72  
72  71  73  74  
74  73  75  76  
11  18  77  67  
67  77  78  69  
69  78  79  71  
71  79  80  73  
73  80  81  75  
18  24  82  77  
77  82  83  78  
78  83  84  79  
79  84  85  80  
80  85  86  81  
24  30  87  82  
82  87  88  83  
83  88  89  84  
84  89  90  85  
85  90  91  86  
30  36  92  87  
87  92  93  88  
88  93  94  89  
89  94  95  90  
90  95  96  91  
36  42  97  92  
92  97  98  93  
93  98  99  94  
94  99  100  95  
95  100  101  96  
42  48  102  97  
97  102  103  98  
98  103  104  99  
99  104  105  100  
100  105  106  101  
48  54  107  102  
102  107  108  103  
103  108  109  104  
104  109  110  105  
105  110  111  106  
54  60  112  107  
107  112  113  108  
108  113  114  109  
109  114  115  110  
110  115  116  111  
60  66  117  112  
112  117  118  113  
113  118  119  114  
114  119  120  115  
115  120  121  116  
VARIABLES  = "X","Y","Z", "TEMPERATURE1", "DISPLACEMENT_X1", "DISPLACEMENT_Y1", "STRESS_XX", "STRESS_XY", "STRESS_YY", "STRESS_ZZ", "STRAIN_XX", "STRAIN_XY", "STRAIN_YY", "STRAIN_ZZ", "STRAIN_PLS"
ZONE T="1.000000000000e+00s", N=121, E=100, F=FEPOINT, ET=QUADRILATERAL
STRANDID=1, SOLUTIONTIME=1.000000000000e+00
0.000000000000e+00 1.000000000000e+01 0.000000000000e+00 3.080000000000e+02 0.000000000000e+00 0.000000000000e+00 -7.221536711835e+05 -1.980739420504e-06 -2.291028195846e+06 -2.291059104097e+06 7.970039599201e-05 -2.012431251232e-16 1.570139173958e-09 0.000000000000e+00 0.000000000000e+00 
0.000000000000e+00 9.000000000000e+00 0.000000000000e+00 3.080000000000e+02 0.000000000000e+00 -1.413124469815e-09 -7.221572995027e+05 -6.639648532332e-06 -2.291038005886e+06 -2.291062732454e+06 7.970039599393e-05 -6.745882908849e-16 1.256109670183e-09 0.000000000000e+00 0.000000000000e+00 
1.000000000000e+00 9.000000000000e+00 0.000000000000e+00 3.028103200075e+02 5.261453192387e-05 -1.413124733744e-09 -7.221572994981e+05 1.155400871666e-06 -1.224665404702e+06 -1.224690131266e+06 2.552866785383e-05 1.173887285612e-16 1.256109471583e-09 0.000000000000e+00 0.000000000000e+00 
1.000000000000e+00 1.000000000000e+01 0.000000000000e+00 3.028103200081e+02 5.261453192403e-05 0.000000000000e+00 -7.221536712137e+05 -5.703189812564e-07 -1.224655594749e+06 -1.224686503022e+06 2.552866785587e-05 -5.794440849565e-17 1.570140286264e-09 0.000000000000e+00 0.000000000000e+00 
2.000000000000e+00 9.000000000000e+00 0.000000000000e+00 2.995207263760e+02 6.097422479631e-05 -1.413123239897e-09 -7.221572995149e+05 7.252865198914e-05 -5.487215077961e+05 -5.487462343769e+05 -8.809282109008e-06 7.368911042096e-15 1.256110305662e-09 0.000000000000e+00 0.000000000000e+00 
2.000000000000e+00 1.000000000000e+01 0.000000000000e+00 2.995207263762e+02 6.097422479847e-05 0.000000000000e+00 -7.221536711352e+05 1.384636718320e-05 -5.487116978578e+05 -5.487426060547e+05 -8.809282106089e-06 1.406790905813e-15 1.570136405232e-09 0.000000000000e+00 0.000000000000e+00 
3.000000000000e+00 9.000000000000e+00 0.000000000000e+00 2.983024903080e+02 4.580675170159e-05 -1.413120517382e-09 -7.221572995273e+05 9.838394191171e-06 -2.983990280453e+05 -2.984237546380e+05 -2.152566408038e-05 9.995808498230e-16 1.256110905365e-09 0.000000000000e+00 0.000000000000e+00 
3.000000000000e+00 1.000000000000e+01 0.000000000000e+00 2.983024903063e+02 4.580675170177e-05 0.000000000000e+00 -7.221536709753e+05 -2.148063334120e-07 -2.983892178780e+05 -2.984201259358e+05 -2.152566408801e-05 -2.182432347466e-17 1.570129335130e-09 0.000000000000e+00 0.000000000000e+00 
4.000000000000e+00 9.000000000000e+00 0.000000000000e+00 2.981205445223e+02 2.333148016529e-05 -1.413122623504e-09 -7.221572995024e+05 -6.474624145528e-05 -2.610129077312e+05 -2.610376343002e+05 -2.342487899227e-05 -6.578218131856e-15 1.256109706154e-09 0.000000000000e+00 0.000000000000e+00 
4.000000000000e+00 1.000000000000e+01 0.000000000000e+00 2.981205445225e+02 2.333148016347e-05 0.000000000000e+00 -7.221536711186e+05 -1.038230987439e-05 -2.610030977952e+05 -2.610340059764e+05 -2.342487898922e-05 -1.054842683238e-15 1.570135606947e-09 0.000000000000e+00 0.000000000000e+00 
5.000000000000e+00 9.000000000000e+00 0.000000000000e+00 2.981384398366e+02 4.476723269125e-15 -1.413124174116e-09 -7.221572995233e+05 -8.794895822325e-06 -2.646900270820e+05 -2.647147536703e+05 -2.323808132934e-05 -8.935614155482e-16 1.256110681369e-09 0.000000000000e+00 0.000000000000e+00 
5.000000000000e+00 1.000000000000e+01 0.000000000000e+00 2.981384398366e+02 4.189229659533e-15 0.000000000000e+00 -7.221536711650e+05 4.778027530349e-07 -2.646802170990e+05 -2.647111253257e+05 -2.323808132864e-05 4.854475970835e-17 1.570137918145e-09 0.000000000000e+00 0.000000000000e+00 
0.000000000000e+00 8.000000000000e+00 0.000000000000e+00 3.080000000000e+02 0.000000000000e+00 -2.512219613942e-09 -7.221609278333e+05 -2.442521843529e-07 -2.291047815914e+06 -2.291066360811e+06 7.970039599526e-05 -2.481602193025e-17 9.420807744735e-10 0.000000000000e+00 0.000000000000e+00 
1.000000000000e+00 8.000000000000e+00 0.000000000000e+00 3.028103200072e+02 5.261453192371e-05 -2.512219528479e-09 -7.221609278086e+05 5.402591752443e-06 -1.224675214669e+06 -1.224693759547e+06 2.552866785233e-05 5.489033220482e-16 9.420798220420e-10 0.000000000000e+00 0.000000000000e+00 
2.000000000000e+00 8.000000000000e+00 0.000000000000e+00 2.995207263756e+02 6.097422479438e-05 -2.512219220663e-09 -7.221609278366e+05 4.116813067924e-06 -5.487313177391e+05 -5.487498626468e+05 -8.809282111645e-06 4.182682077011e-16 9.420813081838e-10 0.000000000000e+00 0.000000000000e+00 
3.000000000000e+00 8.000000000000e+00 0.000000000000e+00 2.983024903090e+02 4.580675170148e-05 -2.512219412605e-09 -7.221609279795e+05 -1.480930678483e-05 -2.984088381839e+05 -2.984273832181e+05 -2.152566407388e-05 -1.504625569338e-15 9.420877371140e-10 0.000000000000e+00 0.000000000000e+00 
4.000000000000e+00 8.000000000000e+00 0.000000000000e+00 2.981205445225e+02 2.333148016736e-05 -2.512220330682e-09 -7.221609279277e+05 -1.653946644484e-05 -2.610227177051e+05 -2.610412626977e+05 -2.342487899368e-05 -1.680409790795e-15 9.420856229996e-10 0.000000000000e+00 0.000000000000e+00 
5.000000000000e+00 8.000000000000e+00 0.000000000000e+00 2.981384398362e+02 4.896684802537e-15 -2.512220779559e-09 -7.221609278572e+05 -2.744926178813e-06 -2.646998370288e+05 -2.647183819564e+05 -2.323808133176e-05 -2.788844997674e-16 9.420823221543e-10 0.000000000000e+00 0.000000000000e+00 
0.000000000000e+00 7.000000000000e+00 0.000000000000e+00 3.080000000000e+02 0.000000000000e+00 -3.297287249878e-09 -7.221645562100e+05 2.876265200052e-06 -2.291057625889e+06 -2.291069989166e+06 7.970039599416e-05 2.922285443253e-16 6.280544708738e-10 0.000000000000e+00 0.000000000000e+00 
1.000000000000e+00 7.000000000000e+00 0.000000000000e+00 3.028103200075e+02 5.261453192350e-05 -3.297287125480e-09 -7.221645562258e+05 3.216460389589e-07 -1.224685024680e+06 -1.224697387972e+06 2.552866785272e-05 3.267923755822e-17 6.280552380312e-10 0.000000000000e+00 0.000000000000e+00 
2.000000000000e+00 7.000000000000e+00 0.000000000000e+00 2.995207263762e+02 6.097422479562e-05 -3.297287899978e-09 -7.221645562434e+05 -3.899849790637e-05 -5.487411278106e+05 -5.487534911177e+05 -8.809282108383e-06 -3.962247387288e-15 6.280560014957e-10 0.000000000000e+00 0.000000000000e+00 
3.000000000000e+00 7.000000000000e+00 0.000000000000e+00 2.983024903080e+02 4.580675170281e-05 -3.297289874832e-09 -7.221645561899e+05 -3.009301850554e-05 -2.984186481083e+05 -2.984310113646e+05 -2.152566407713e-05 -3.057450680163e-15 6.280534186751e-10 0.000000000000e+00 0.000000000000e+00 
4.000000000000e+00 7.000000000000e+00 0.000000000000e+00 2.981205445220e+02 2.333148016708e-05 -3.297290077006e-09 -7.221645562010e+05 1.603084233047e-05 -2.610325276882e+05 -2.610448909558e+05 -2.342487899446e-05 1.628733580776e-15 6.280539969116e-10 0.000000000000e+00 0.000000000000e+00 
5.000000000000e+00 7.000000000000e+00 0.000000000000e+00 2.981384398364e+02 4.842204291846e-15 -3.297289515533e-09 -7.221645562211e+05 3.376376593128e-06 -2.647096470691e+05 -2.647220103558e+05 -2.323808132996e-05 3.430398618618e-16 6.280549638118e-10 0.000000000000e+00 0.000000000000e+00 
0.000000000000e+00 6.000000000000e+00 0.000000000000e+00 3.080000000000e+02 0.000000000000e+00 -3.768328216279e-09 -7.221681845757e+05 1.380866747026e-06 -2.291067435881e+06 -2.291073617523e+06 7.970039599370e-05 1.402960614978e-16 3.140273791547e-10 0.000000000000e+00 0.000000000000e+00 
1.000000000000e+00 6.000000000000e+00 0.000000000000e+00 3.028103200076e+02 5.261453192381e-05 -3.768328264319e-09 -7.221681845711e+05 -5.571379321943e-06 -1.224694834705e+06 -1.224701016341e+06 2.552866785394e-05 -5.660521391094e-16 3.140271138934e-10 0.000000000000e+00 0.000000000000e+00 
2.000000000000e+00 6.000000000000e+00 0.000000000000e+00 2.995207263760e+02 6.097422479694e-05 -3.768328965421e-09 -7.221681845550e+05 -2.291967189174e-05 -5.487509378239e+05 -5.487571194444e+05 -8.809282107622e-06 -2.328638664201e-15 3.140263206427e-10 0.000000000000e+00 0.000000000000e+00 
3.000000000000e+00 6.000000000000e+00 0.000000000000e+00 2.983024903079e+02 4.580675170370e-05 -3.768329994566e-09 -7.221681845590e+05 -1.171904914936e-05 -2.984284580740e+05 -2.984346396996e+05 -2.152566407886e-05 -1.190655393575e-15 3.140265809909e-10 0.000000000000e+00 0.000000000000e+00 
4.000000000000e+00 6.000000000000e+00 0.000000000000e+00 2.981205445219e+02 2.333148016682e-05 -3.768330064670e-09 -7.221681845443e+05 4.333414132764e-06 -2.610423376770e+05 -2.610485192883e+05 -2.342487899500e-05 4.402748758888e-16 3.140258547579e-10 0.000000000000e+00 0.000000000000e+00 
5.000000000000e+00 6.000000000000e+00 0.000000000000e+00 2.981384398364e+02 4.862417664308e-15 -3.768330063892e-09 -7.221681845543e+05 -4.638650225321e-06 -2.647194570893e+05 -2.647256387090e+05 -2.323808132894e-05 -4.712868628926e-16 3.140262804312e-10 0.000000000000e+00 0.000000000000e+00 
0.000000000000e+00 5.000000000000e+00 0.000000000000e+00 3.080000000000e+02 0.000000000000e+00 -3.925341980788e-09 -7.221718129379e+05 7.626544946914e-07 -2.291077245875e+06 -2.291077245879e+06 7.970039599339e-05 7.748569666064e-17 1.961890868935e-16 0.000000000000e+00 0.000000000000e+00 
1.000000000000e+00 5.000000000000e+00 0.000000000000e+00 3.028103200077e+02 5.261453192393e-05 -3.925341963890e-09 -7.221718129417e+05 -6.533444064329e-07 -1.224704644715e+06 -1.224704644722e+06 2.552866785444e-05 -6.637979169359e-17 3.392415691831e-16 0.000000000000e+00 0.000000000000e+00 
2.000000000000e+00 5.000000000000e+00 0.000000000000e+00 2.995207263762e+02 6.097422479774e-05 -3.925342183262e-09 -7.221718129367e+05 -7.653903673675e-06 -5.487607478432e+05 -5.487607478446e+05 -8.809282106678e-06 -7.776366132454e-16 7.338999281439e-17 0.000000000000e+00 0.000000000000e+00 
3.000000000000e+00 5.000000000000e+00 0.000000000000e+00 2.983024903077e+02 4.580675170414e-05 -3.925342562092e-09 -7.221718129027e+05 -4.985800320198e-06 -2.984382680378e+05 -2.984382680087e+05 -2.152566408062e-05 -5.065573125321e-16 -1.478819028833e-15 0.000000000000e+00 0.000000000000e+00 
4.000000000000e+00 5.000000000000e+00 0.000000000000e+00 2.981205445221e+02 2.333148016669e-05 -3.925342644331e-09 -7.221718129211e+05 6.563868030478e-07 -2.610521476910e+05 -2.610521476775e+05 -2.342487899438e-05 6.668889918966e-17 -6.879597468747e-16 0.000000000000e+00 0.000000000000e+00 
5.000000000000e+00 5.000000000000e+00 0.000000000000e+00 2.981384398365e+02 5.227758109868e-15 -3.925342792129e-09 -7.221718129169e+05 -8.221626314846e-06 -2.647292670982e+05 -2.647292670809e+05 -2.323808132847e-05 -8.353172335883e-16 -8.765760958808e-16 0.000000000000e+00 0.000000000000e+00 
0.000000000000e+00 4.000000000000e+00 0.000000000000e+00 3.080000000000e+02 0.000000000000e+00 -3.768328457651e-09 -7.221754412958e+05 1.468582723096e-08 -2.291087055874e+06 -2.291080874235e+06 7.970039599331e-05 1.492080046666e-18 -3.140272450644e-10 0.000000000000e+00 0.000000000000e+00 
1.000000000000e+00 4.000000000000e+00 0.000000000000e+00 3.028103200077e+02 5.261453192397e-05 -3.768328438878e-09 -7.221754412935e+05 3.886271867300e-07 -1.224714454719e+06 -1.224708273078e+06 2.552866785466e-05 3.948452217177e-17 -3.140273663213e-10 0.000000000000e+00 0.000000000000e+00 
2.000000000000e+00 4.000000000000e+00 0.000000000000e+00 2.995207263762e+02 6.097422479775e-05 -3.768328372815e-09 -7.221754412873e+05 3.748526545197e-06 -5.487705578330e+05 -5.487643761863e+05 -8.809282107129e-06 3.808502969920e-16 -3.140276543301e-10 0.000000000000e+00 0.000000000000e+00 
3.000000000000e+00 4.000000000000e+00 0.000000000000e+00 2.983024903079e+02 4.580675170423e-05 -3.768328212050e-09 -7.221754412946e+05 8.501796873513e-07 -2.984480780545e+05 -2.984418964148e+05 -2.152566407989e-05 8.637825623489e-17 -3.140272975610e-10 0.000000000000e+00 0.000000000000e+00 
4.000000000000e+00 4.000000000000e+00 0.000000000000e+00 2.981205445221e+02 2.333148016684e-05 -3.768328344022e-09 -7.221754412816e+05 -4.096323971960e-06 -2.610619576792e+05 -2.610557760274e+05 -2.342487899491e-05 -4.161865155512e-16 -3.140279092021e-10 0.000000000000e+00 0.000000000000e+00 
5.000000000000e+00 4.000000000000e+00 0.000000000000e+00 2.981384398367e+02 5.622245179852e-15 -3.768328611404e-09 -7.221754412917e+05 -8.623835573484e-06 -2.647390771167e+05 -2.647328954738e+05 -2.323808132755e-05 -8.761816942660e-16 -3.140274634201e-10 0.000000000000e+00 0.000000000000e+00 
0.000000000000e+00 3.000000000000e+00 0.000000000000e+00 3.080000000000e+02 0.000000000000e+00 -3.297287493774e-09 -7.221790696536e+05 -6.215284996247e-08 -2.291096865872e+06 -2.291084502591e+06 7.970039599322e-05 -6.314729556187e-18 -6.280546548511e-10 0.000000000000e+00 0.000000000000e+00 
1.000000000000e+00 3.000000000000e+00 0.000000000000e+00 3.028103200077e+02 5.261453192386e-05 -3.297287417677e-09 -7.221790696536e+05 3.506748613977e-06 -1.224724264716e+06 -1.224711901435e+06 2.552866785450e-05 3.562856591800e-16 -6.280546694951e-10 0.000000000000e+00 0.000000000000e+00 
2.000000000000e+00 3.000000000000e+00 0.000000000000e+00 2.995207263762e+02 6.097422479756e-05 -3.297287169480e-09 -7.221790696512e+05 5.947174502312e-06 -5.487803678349e+05 -5.487680045515e+05 -8.809282107064e-06 6.042329294349e-16 -6.280547965527e-10 0.000000000000e+00 0.000000000000e+00 
3.000000000000e+00 3.000000000000e+00 0.000000000000e+00 2.983024903079e+02 4.580675170410e-05 -3.297286886228e-09 -7.221790696405e+05 4.589235669661e-06 -2.984578880552e+05 -2.984455247618e+05 -2.152566407984e-05 4.662663440375e-16 -6.280553065328e-10 0.000000000000e+00 0.000000000000e+00 
4.000000000000e+00 3.000000000000e+00 0.000000000000e+00 2.981205445221e+02 2.333148016700e-05 -3.297286795244e-09 -7.221790696421e+05 -2.098540872039e-06 -2.610717676894e+05 -2.610594043980e+05 -2.342487899440e-05 -2.132117525992e-16 -6.280552032072e-10 0.000000000000e+00 0.000000000000e+00 
5.000000000000e+00 3.000000000000e+00 0.000000000000e+00 2.981384398367e+02 6.138041478149e-15 -3.297287140402e-09 -7.221790696369e+05 -1.092699450683e-05 -2.647488871203e+05 -2.647365238232e+05 -2.323808132734e-05 -1.110182641894e-15 -6.280554922616e-10 0.000000000000e+00 0.000000000000e+00 
0.000000000000e+00 2.000000000000e+00 0.000000000000e+00 3.080000000000e+02 0.000000000000e+00 -2.512219142986e-09 -7.221826980115e+05 -3.861719600520e-07 -2.291106675869e+06 -2.291088130947e+06 7.970039599313e-05 -3.923507114128e-17 -9.420820578211e-10 0.000000000000e+00 0.000000000000e+00 
1.000000000000e+00 2.000000000000e+00 0.000000000000e+00 3.028103200077e+02 5.261453192369e-05 -2.512219091478e-09 -7.221826980138e+05 2.878850823544e-06 -1.224734074710e+06 -1.224715529790e+06 2.552866785423e-05 2.924912436720e-16 -9.420819521934e-10 0.000000000000e+00 0.000000000000e+00 
2.000000000000e+00 2.000000000000e+00 0.000000000000e+00 2.995207263762e+02 6.097422479711e-05 -2.512218754842e-09 -7.221826980142e+05 1.190746346850e-05 -5.487901778294e+05 -5.487716329084e+05 -8.809282107376e-06 1.209798288400e-15 -9.420819884109e-10 0.000000000000e+00 0.000000000000e+00 
3.000000000000e+00 2.000000000000e+00 0.000000000000e+00 2.983024903080e+02 4.580675170364e-05 -2.512218014403e-09 -7.221826980043e+05 1.797253460797e-05 -2.984676980628e+05 -2.984491531327e+05 -2.152566407948e-05 1.826009516169e-15 -9.420824483685e-10 0.000000000000e+00 0.000000000000e+00 
4.000000000000e+00 2.000000000000e+00 0.000000000000e+00 2.981205445221e+02 2.333148016708e-05 -2.512217501194e-09 -7.221826979817e+05 -1.481331728262e-06 -2.610815777017e+05 -2.610630327510e+05 -2.342487899372e-05 -1.505033035914e-16 -9.420834963654e-10 0.000000000000e+00 0.000000000000e+00 
5.000000000000e+00 2.000000000000e+00 0.000000000000e+00 2.981384398368e+02 6.807222631323e-15 -2.512218126509e-09 -7.221826980031e+05 -1.932428075088e-05 -2.647586971299e+05 -2.647401521985e+05 -2.323808132688e-05 -1.963346924289e-15 -9.420825192357e-10 0.000000000000e+00 0.000000000000e+00 
0.000000000000e+00 1.000000000000e+00 0.000000000000e+00 3.080000000000e+02 0.000000000000e+00 -1.413123306316e-09 -7.221863263662e+05 4.149152315089e-07 -2.291116485871e+06 -2.291091759303e+06 7.970039599320e-05 4.215538752131e-17 -1.256109639751e-09 0.000000000000e+00 0.000000000000e+00 
1.000000000000e+00 1.000000000000e+00 0.000000000000e+00 3.028103200077e+02 5.261453192365e-05 -1.413123335200e-09 -7.221863263663e+05 -3.523004454824e-06 -1.224743884707e+06 -1.224719158139e+06 2.552866785407e-05 -3.579372526101e-16 -1.256109612976e-09 0.000000000000e+00 0.000000000000e+00 
2.000000000000e+00 1.000000000000e+00 0.000000000000e+00 2.995207263762e+02 6.097422479656e-05 -1.413123324553e-09 -7.221863263835e+05 8.575421182181e-06 -5.487999878114e+05 -5.487752612607e+05 -8.809282108237e-06 8.712627921096e-16 -1.256108774666e-09 0.000000000000e+00 0.000000000000e+00 
3.000000000000e+00 1.000000000000e+00 0.000000000000e+00 2.983024903081e+02 4.580675170262e-05 -1.413122501458e-09 -7.221863263872e+05 2.176611668094e-05 -2.984775080581e+05 -2.984527815112e+05 -2.152566407970e-05 2.211437454784e-15 -1.256108583838e-09 0.000000000000e+00 0.000000000000e+00 
4.000000000000e+00 1.000000000000e+00 0.000000000000e+00 2.981205445227e+02 2.333148016709e-05 -1.413121875243e-09 -7.221863264061e+05 2.504277580903e-06 -2.610913877537e+05 -2.610666612233e+05 -2.342487899128e-05 2.544346022198e-16 -1.256107744231e-09 0.000000000000e+00 0.000000000000e+00 
5.000000000000e+00 1.000000000000e+00 0.000000000000e+00 2.981384398368e+02 7.750559890002e-15 -1.413122268817e-09 -7.221863263739e+05 -1.520455012449e-05 -2.647685071206e+05 -2.647437805609e+05 -2.323808132730e-05 -1.544782292649e-15 -1.256109234832e-09 0.000000000000e+00 0.000000000000e+00 
0.000000000000e+00 0.000000000000e+00 0.000000000000e+00 3.080000000000e+02 0.000000000000e+00 0.000000000000e+00 -7.221899547267e+05 5.087747593111e-07 -2.291126295868e+06 -2.291095387660e+06 7.970039599300e-05 5.169151554601e-17 -1.570136960730e-09 0.000000000000e+00 0.000000000000e+00 
1.000000000000e+00 0.000000000000e+00 0.000000000000e+00 3.028103200077e+02 5.261453192380e-05 0.000000000000e+00 -7.221899547249e+05 -1.986483537539e-06 -1.224753694720e+06 -1.224722786510e+06 2.552866785467e-05 -2.018267274140e-16 -1.570137053873e-09 0.000000000000e+00 0.000000000000e+00 
2.000000000000e+00 0.000000000000e+00 0.000000000000e+00 2.995207263759e+02 6.097422479637e-05 0.000000000000e+00 -7.221899547030e+05 -1.763783844271e-07 -5.488097977807e+05 -5.487788895524e+05 -8.809282109650e-06 -1.792004385779e-17 -1.570137996062e-09 0.000000000000e+00 0.000000000000e+00 
3.000000000000e+00 0.000000000000e+00 0.000000000000e+00 2.983024903081e+02 4.580675170210e-05 0.000000000000e+00 -7.221899547383e+05 1.305122476235e-06 -2.984873180727e+05 -2.984564098760e+05 -2.152566407900e-05 1.326004435855e-16 -1.570136389182e-09 0.000000000000e+00 0.000000000000e+00 
4.000000000000e+00 0.000000000000e+00 0.000000000000e+00 2.981205445226e+02 2.333148016696e-05 0.000000000000e+00 -7.221899547491e+05 1.216207032401e-06 -2.611011977560e+05 -2.610702895692e+05 -2.342487899114e-05 1.235666344920e-16 -1.570135886663e-09 0.000000000000e+00 0.000000000000e+00 
5.000000000000e+00 0.000000000000e+00 0.000000000000e+00 2.981384398370e+02 8.034162956788e-15 0.000000000000e+00 -7.221899547618e+05 9.834036927794e-07 -2.647783171362e+05 -2.647474089622e+05 -2.323808132662e-05 9.991381518639e-17 -1.570135241026e-09 0.000000000000e+00 0.000000000000e+00 
6.000000000000e+00 9.000000000000e+00 0.000000000000e+00 2.981205445225e+02 -2.333148015581e-05 -1.413124205342e-09 -7.221572995097e+05 -2.165993383881e-06 -2.610129077522e+05 -2.610376343287e+05 -2.342487899120e-05 -2.200649278023e-16 1.256110087239e-09 0.000000000000e+00 0.000000000000e+00 
6.000000000000e+00 1.000000000000e+01 0.000000000000e+00 2.981205445225e+02 -2.333148015587e-05 0.000000000000e+00 -7.221536711681e+05 -1.500932236097e-07 -2.610030977452e+05 -2.610340059792e+05 -2.342487899160e-05 -1.524947151875e-17 1.570138289369e-09 0.000000000000e+00 0.000000000000e+00 
7.000000000000e+00 9.000000000000e+00 0.000000000000e+00 2.983024903079e+02 -4.580675169206e-05 -1.413124478623e-09 -7.221572995305e+05 3.599782360795e-06 -2.983990280250e+05 -2.984237546210e+05 -2.152566408140e-05 3.657378878568e-16 1.256111078618e-09 0.000000000000e+00 0.000000000000e+00 
7.000000000000e+00 1.000000000000e+01 0.000000000000e+00 2.983024903079e+02 -4.580675169189e-05 0.000000000000e+00 -7.221536711612e+05 3.450026855811e-06 -2.983892180475e+05 -2.984201262743e+05 -2.152566408026e-05 3.505227285504e-16 1.570137919438e-09 0.000000000000e+00 0.000000000000e+00 
8.000000000000e+00 9.000000000000e+00 0.000000000000e+00 2.995207263755e+02 -6.097422479030e-05 -1.413124566878e-09 -7.221572995332e+05 -2.923339691272e-05 -5.487215076793e+05 -5.487462342778e+05 -8.809282114975e-06 -2.970113126333e-15 1.256111202538e-09 0.000000000000e+00 0.000000000000e+00 
8.000000000000e+00 1.000000000000e+01 0.000000000000e+00 2.995207263750e+02 -6.097422479122e-05 0.000000000000e+00 -7.221536711485e+05 -5.862098635180e-06 -5.487116975958e+05 -5.487426058168e+05 -8.809282118850e-06 -5.955892213343e-16 1.570137623861e-09 0.000000000000e+00 0.000000000000e+00 
9.000000000000e+00 9.000000000000e+00 0.000000000000e+00 3.028103200074e+02 -5.261453192207e-05 -1.413126466804e-09 -7.221572995166e+05 -2.157437330460e-05 -1.224665404654e+06 -1.224690131237e+06 2.552866785140e-05 -2.191956327748e-15 1.256110405005e-09 0.000000000000e+00 0.000000000000e+00 
9.000000000000e+00 1.000000000000e+01 0.000000000000e+00 3.028103200083e+02 -5.261453192272e-05 0.000000000000e+00 -7.221536712659e+05 -3.207446771567e-06 -1.224655594753e+06 -1.224686503077e+06 2.552866785600e-05 -3.258765919912e-16 1.570142862755e-09 0.000000000000e+00 0.000000000000e+00 
1.000000000000e+01 9.000000000000e+00 0.000000000000e+00 3.080000000000e+02 0.000000000000e+00 -1.413126257479e-09 -7.221572995261e+05 1.181337282263e-05 -2.291038005863e+06 -2.291062732454e+06 7.970039599274e-05 1.200238678779e-15 1.256110854219e-09 0.000000000000e+00 0.000000000000e+00 
1.000000000000e+01 1.000000000000e+01 0.000000000000e+00 3.080000000000e+02 0.000000000000e+00 0.000000000000e+00 -7.221536712313e+05 3.810810318804e-06 -2.291028195798e+06 -2.291059104097e+06 7.970039598958e-05 3.871783283905e-16 1.570141600868e-09 0.000000000000e+00 0.000000000000e+00 
6.000000000000e+00 8.000000000000e+00 0.000000000000e+00 2.981205445227e+02 -2.333148015568e-05 -2.512220889280e-09 -7.221609278825e+05 -1.850554013082e-06 -2.610227177908e+05 -2.610412627377e+05 -2.342487898936e-05 -1.880162877292e-16 9.420833014593e-10 0.000000000000e+00 0.000000000000e+00 
7.000000000000e+00 8.000000000000e+00 0.000000000000e+00 2.983024903076e+02 -4.580675169187e-05 -2.512221125498e-09 -7.221609278559e+05 -7.826819724728e-06 -2.984088379901e+05 -2.984273829136e+05 -2.152566408307e-05 -7.952048840324e-16 9.420821165587e-10 0.000000000000e+00 0.000000000000e+00 
8.000000000000e+00 8.000000000000e+00 0.000000000000e+00 2.995207263758e+02 -6.097422478933e-05 -2.512221634866e-09 -7.221609278861e+05 -1.258728109581e-05 -5.487313177478e+05 -5.487498626950e+05 -8.809282111704e-06 -1.278867759334e-15 9.420833199812e-10 0.000000000000e+00 0.000000000000e+00 
9.000000000000e+00 8.000000000000e+00 0.000000000000e+00 3.028103200068e+02 -5.261453192137e-05 -2.512222134369e-09 -7.221609278230e+05 -4.311817992166e-06 -1.224675214576e+06 -1.224693759469e+06 2.552866784764e-05 -4.380807080041e-16 9.420805614786e-10 0.000000000000e+00 0.000000000000e+00 
1.000000000000e+01 8.000000000000e+00 0.000000000000e+00 3.080000000000e+02 0.000000000000e+00 -2.512222155218e-09 -7.221609278382e+05 1.236478119736e-06 -2.291047815908e+06 -2.291066360811e+06 7.970039599500e-05 1.256261769652e-16 9.420810731735e-10 0.000000000000e+00 0.000000000000e+00 
6.000000000000e+00 7.000000000000e+00 0.000000000000e+00 2.981205445224e+02 -2.333148015552e-05 -3.297289817353e-09 -7.221645562133e+05 -5.516339365808e-06 -2.610325277595e+05 -2.610448910391e+05 -2.342487899085e-05 -5.604600795661e-16 6.280546033023e-10 0.000000000000e+00 0.000000000000e+00 
7.000000000000e+00 7.000000000000e+00 0.000000000000e+00 2.983024903079e+02 -4.580675169146e-05 -3.297289959489e-09 -7.221645562341e+05 -7.760496696695e-06 -2.984186480350e+05 -2.984310113333e+05 -2.152566408096e-05 -7.884664643842e-16 6.280555527794e-10 0.000000000000e+00 0.000000000000e+00 
8.000000000000e+00 7.000000000000e+00 0.000000000000e+00 2.995207263754e+02 -6.097422478905e-05 -3.297290424052e-09 -7.221645562070e+05 -4.127361603161e-07 -5.487411276931e+05 -5.487534909670e+05 -8.809282114195e-06 -4.193399388812e-17 6.280543143661e-10 0.000000000000e+00 0.000000000000e+00 
9.000000000000e+00 7.000000000000e+00 0.000000000000e+00 3.028103200072e+02 -5.261453192151e-05 -3.297290075466e-09 -7.221645562271e+05 6.435594137057e-06 -1.224685024612e+06 -1.224697387905e+06 2.552866784922e-05 6.538563643250e-16 6.280552632382e-10 0.000000000000e+00 0.000000000000e+00 
1.000000000000e+01 7.000000000000e+00 0.000000000000e+00 3.080000000000e+02 0.000000000000e+00 -3.297290110487e-09 -7.221645562171e+05 -2.800004097785e-06 -2.291057625883e+06 -2.291069989166e+06 7.970039599382e-05 -2.844804163349e-16 6.280547875535e-10 0.000000000000e+00 0.000000000000e+00 
6.000000000000e+00 6.000000000000e+00 0.000000000000e+00 2.981205445224e+02 -2.333148015510e-05 -3.768330489175e-09 -7.221681845615e+05 -1.141219971067e-05 -2.610423377584e+05 -2.610485193856e+05 -2.342487899093e-05 -1.159479490604e-15 3.140266644875e-10 0.000000000000e+00 0.000000000000e+00 
7.000000000000e+00 6.000000000000e+00 0.000000000000e+00 2.983024903077e+02 -4.580675169113e-05 -3.768330982129e-09 -7.221681845609e+05 -7.081307464570e-06 -2.984284580305e+05 -2.984346396570e+05 -2.152566408112e-05 -7.194608384004e-16 3.140266234404e-10 0.000000000000e+00 0.000000000000e+00 
8.000000000000e+00 6.000000000000e+00 0.000000000000e+00 2.995207263754e+02 -6.097422478903e-05 -3.768331178350e-09 -7.221681845682e+05 -1.066585083840e-06 -5.487509376840e+05 -5.487571193183e+05 -8.809282114691e-06 -1.083650445182e-16 3.140270259995e-10 0.000000000000e+00 0.000000000000e+00 
9.000000000000e+00 6.000000000000e+00 0.000000000000e+00 3.028103200071e+02 -5.261453192164e-05 -3.768331191617e-09 -7.221681845705e+05 7.332761109378e-07 -1.224694834617e+06 -1.224701016253e+06 2.552866784947e-05 7.450085287128e-17 3.140271001637e-10 0.000000000000e+00 0.000000000000e+00 
1.000000000000e+01 6.000000000000e+00 0.000000000000e+00 3.080000000000e+02 0.000000000000e+00 -3.768331160921e-09 -7.221681845733e+05 3.992868123484e-07 -2.291067435884e+06 -2.291073617523e+06 7.970039599382e-05 4.056754013460e-17 3.140272608674e-10 0.000000000000e+00 0.000000000000e+00 
6.000000000000e+00 5.000000000000e+00 0.000000000000e+00 2.981205445224e+02 -2.333148015447e-05 -3.925343426300e-09 -7.221718129194e+05 -1.504798321502e-05 -2.610521477574e+05 -2.610521477428e+05 -2.342487899097e-05 -1.528875094646e-15 -7.456543738789e-16 0.000000000000e+00 0.000000000000e+00 
7.000000000000e+00 5.000000000000e+00 0.000000000000e+00 2.983024903077e+02 -4.580675169068e-05 -3.925344064183e-09 -7.221718129241e+05 -1.063146185127e-05 -2.984382680242e+05 -2.984382680140e+05 -2.152566408143e-05 -1.080156524089e-15 -5.165321342496e-16 0.000000000000e+00 0.000000000000e+00 
8.000000000000e+00 5.000000000000e+00 0.000000000000e+00 2.995207263754e+02 -6.097422478885e-05 -3.925344456103e-09 -7.221718129262e+05 -5.037175527373e-06 -5.487607476802e+05 -5.487607476721e+05 -8.809282114907e-06 -5.117770335811e-16 -4.098499447507e-16 0.000000000000e+00 0.000000000000e+00 
9.000000000000e+00 5.000000000000e+00 0.000000000000e+00 3.028103200071e+02 -5.261453192161e-05 -3.925344602585e-09 -7.221718129283e+05 -1.293235518229e-06 -1.224704644615e+06 -1.224704644609e+06 2.552866784938e-05 -1.313927286521e-16 -3.057988123384e-16 0.000000000000e+00 0.000000000000e+00 
1.000000000000e+01 5.000000000000e+00 0.000000000000e+00 3.080000000000e+02 0.000000000000e+00 -3.925344631522e-09 -7.221718129289e+05 3.110330800038e-08 -2.291077245884e+06 -2.291077245879e+06 7.970039599385e-05 3.160096092838e-18 -2.766650981689e-16 0.000000000000e+00 0.000000000000e+00 
6.000000000000e+00 4.000000000000e+00 0.000000000000e+00 2.981205445225e+02 -2.333148015371e-05 -3.768329244413e-09 -7.221754412878e+05 -1.509270512805e-05 -2.610619577556e+05 -2.610557761092e+05 -2.342487899107e-05 -1.533418841010e-15 -3.140276340564e-10 0.000000000000e+00 0.000000000000e+00 
7.000000000000e+00 4.000000000000e+00 0.000000000000e+00 2.983024903077e+02 -4.580675169010e-05 -3.768329947509e-09 -7.221754412863e+05 -1.210857972394e-05 -2.984480780180e+05 -2.984418963702e+05 -2.152566408174e-05 -1.230231699952e-15 -3.140277087962e-10 0.000000000000e+00 0.000000000000e+00 
8.000000000000e+00 4.000000000000e+00 0.000000000000e+00 2.995207263754e+02 -6.097422478856e-05 -3.768330401793e-09 -7.221754412864e+05 -6.210381571279e-06 -5.487705576752e+05 -5.487643760273e+05 -8.809282115164e-06 -6.309747676420e-16 -3.140277139382e-10 0.000000000000e+00 0.000000000000e+00 
9.000000000000e+00 4.000000000000e+00 0.000000000000e+00 3.028103200071e+02 -5.261453192153e-05 -3.768330597333e-09 -7.221754412867e+05 -1.840552215125e-06 -1.224714454612e+06 -1.224708272965e+06 2.552866784924e-05 -1.870001050567e-16 -3.140276917606e-10 0.000000000000e+00 0.000000000000e+00 
1.000000000000e+01 4.000000000000e+00 0.000000000000e+00 3.080000000000e+02 0.000000000000e+00 -3.768330629444e-09 -7.221754412859e+05 1.890221676039e-07 -2.291087055883e+06 -2.291080874235e+06 7.970039599381e-05 1.920465222855e-17 -3.140277285099e-10 0.000000000000e+00 0.000000000000e+00 
6.000000000000e+00 3.000000000000e+00 0.000000000000e+00 2.981205445225e+02 -2.333148015299e-05 -3.297287826653e-09 -7.221790696429e+05 -1.551316310484e-05 -2.610717677589e+05 -2.610594044676e+05 -2.342487899091e-05 -1.576137371451e-15 -6.280552013757e-10 0.000000000000e+00 0.000000000000e+00 
7.000000000000e+00 3.000000000000e+00 0.000000000000e+00 2.983024903077e+02 -4.580675168946e-05 -3.297288592071e-09 -7.221790696467e+05 -1.462232082897e-05 -2.984578880124e+05 -2.984455247247e+05 -2.152566408204e-05 -1.485627796224e-15 -6.280550127293e-10 0.000000000000e+00 0.000000000000e+00 
8.000000000000e+00 3.000000000000e+00 0.000000000000e+00 2.995207263754e+02 -6.097422478826e-05 -3.297289117936e-09 -7.221790696509e+05 -5.204040840510e-06 -5.487803676685e+05 -5.487680043847e+05 -8.809282115526e-06 -5.287305493958e-16 -6.280548203767e-10 0.000000000000e+00 0.000000000000e+00 
9.000000000000e+00 3.000000000000e+00 0.000000000000e+00 3.028103200071e+02 -5.261453192149e-05 -3.297289161765e-09 -7.221790696428e+05 1.587397974105e-06 -1.224724264609e+06 -1.224711901318e+06 2.552866784908e-05 1.612796341690e-16 -6.280551837094e-10 0.000000000000e+00 0.000000000000e+00 
1.000000000000e+01 3.000000000000e+00 0.000000000000e+00 3.080000000000e+02 0.000000000000e+00 -3.297289132850e-09 -7.221790696408e+05 1.249817270542e-07 -2.291096865884e+06 -2.291084502591e+06 7.970039599387e-05 1.269814346871e-17 -6.280552922869e-10 0.000000000000e+00 0.000000000000e+00 
6.000000000000e+00 2.000000000000e+00 0.000000000000e+00 2.981205445225e+02 -2.333148015213e-05 -2.512219013060e-09 -7.221826980053e+05 -1.819462506326e-05 -2.610815777586e+05 -2.610630328294e+05 -2.342487899094e-05 -1.848573906427e-15 -9.420824016898e-10 0.000000000000e+00 0.000000000000e+00 
7.000000000000e+00 2.000000000000e+00 0.000000000000e+00 2.983024903077e+02 -4.580675168872e-05 -2.512219843821e-09 -7.221826980045e+05 -1.433914819445e-05 -2.984676980086e+05 -2.984491530785e+05 -2.152566408224e-05 -1.456857456556e-15 -9.420824495260e-10 0.000000000000e+00 0.000000000000e+00 
8.000000000000e+00 2.000000000000e+00 0.000000000000e+00 2.995207263752e+02 -6.097422478808e-05 -2.512220247372e-09 -7.221826979946e+05 -2.760962083925e-07 -5.487901776491e+05 -5.487716327097e+05 -8.809282116473e-06 -2.805137477268e-17 -9.420829211540e-10 0.000000000000e+00 0.000000000000e+00 
9.000000000000e+00 2.000000000000e+00 0.000000000000e+00 3.028103200071e+02 -5.261453192162e-05 -2.512220087879e-09 -7.221826979930e+05 3.270496756673e-06 -1.224734074614e+06 -1.224715529673e+06 2.552866784937e-05 3.322824704780e-16 -9.420829896166e-10 0.000000000000e+00 0.000000000000e+00 
1.000000000000e+01 2.000000000000e+00 0.000000000000e+00 3.080000000000e+02 0.000000000000e+00 -2.512220073260e-09 -7.221826979970e+05 -9.441154856820e-07 -2.291106675885e+06 -2.291088130947e+06 7.970039599387e-05 -9.592213334529e-17 -9.420828181006e-10 0.000000000000e+00 0.000000000000e+00 
6.000000000000e+00 1.000000000000e+00 0.000000000000e+00 2.981205445225e+02 -2.333148015127e-05 -1.413123030070e-09 -7.221863263676e+05 -1.687236209606e-05 -2.610913877604e+05 -2.610666611941e+05 -2.342487899081e-05 -1.714231988959e-15 -1.256109568377e-09 0.000000000000e+00 0.000000000000e+00 
7.000000000000e+00 1.000000000000e+00 0.000000000000e+00 2.983024903077e+02 -4.580675168811e-05 -1.413123743540e-09 -7.221863263640e+05 -1.217782054884e-05 -2.984775079955e+05 -2.984527814259e+05 -2.152566408286e-05 -1.237266567762e-15 -1.256109738981e-09 0.000000000000e+00 0.000000000000e+00 
8.000000000000e+00 1.000000000000e+00 0.000000000000e+00 2.995207263753e+02 -6.097422478814e-05 -1.413124012320e-09 -7.221863263685e+05 2.889368718930e-06 -5.487999876340e+05 -5.487752610685e+05 -8.809282117239e-06 2.935598618433e-16 -1.256109526863e-09 0.000000000000e+00 0.000000000000e+00 
9.000000000000e+00 1.000000000000e+00 0.000000000000e+00 3.028103200073e+02 -5.261453192177e-05 -1.413123725600e-09 -7.221863263643e+05 5.046212415621e-06 -1.224743884627e+06 -1.224719158057e+06 2.552866785000e-05 5.126951814271e-16 -1.256109758905e-09 0.000000000000e+00 0.000000000000e+00 
1.000000000000e+01 1.000000000000e+00 0.000000000000e+00 3.080000000000e+02 0.000000000000e+00 -1.413123690431e-09 -7.221863263599e+05 -1.161957435396e-06 -2.291116485877e+06 -2.291091759303e+06 7.970039599352e-05 -1.180548754363e-16 -1.256109957842e-09 0.000000000000e+00 0.000000000000e+00 
6.000000000000e+00 0.000000000000e+00 0.000000000000e+00 2.981205445226e+02 -2.333148015077e-05 0.000000000000e+00 -7.221899547355e+05 -1.929276701631e-06 -2.611011977582e+05 -2.610702895594e+05 -2.342487899094e-05 -1.960145128857e-16 -1.570136500040e-09 0.000000000000e+00 0.000000000000e+00 
7.000000000000e+00 0.000000000000e+00 0.000000000000e+00 2.983024903076e+02 -4.580675168773e-05 0.000000000000e+00 -7.221899547085e+05 -1.779572939419e-06 -2.984873179920e+05 -2.984564097674e+05 -2.152566408301e-05 -1.808046106450e-16 -1.570137809103e-09 0.000000000000e+00 0.000000000000e+00 
8.000000000000e+00 0.000000000000e+00 0.000000000000e+00 2.995207263750e+02 -6.097422478820e-05 0.000000000000e+00 -7.221899546927e+05 4.098026758523e-07 -5.488097976161e+05 -5.487788893767e+05 -8.809282118054e-06 4.163595186660e-17 -1.570138565267e-09 0.000000000000e+00 0.000000000000e+00 
9.000000000000e+00 0.000000000000e+00 0.000000000000e+00 3.028103200073e+02 -5.261453192195e-05 0.000000000000e+00 -7.221899547133e+05 1.535129528628e-06 -1.224753694638e+06 -1.224722786417e+06 2.552866785053e-05 1.559691601086e-16 -1.570137662945e-09 0.000000000000e+00 0.000000000000e+00 
1.000000000000e+01 0.000000000000e+00 0.000000000000e+00 3.080000000000e+02 0.000000000000e+00 0.000000000000e+00 -7.221899547180e+05 -1.062874007163e-07 -2.291126295876e+06 -2.291095387660e+06 7.970039599344e-05 -1.079879991278e-17 -1.570137405685e-09 0.000000000000e+00 0.000000000000e+00 
1  2  3  4  
4  3  5  6  
6  5  7  8  
8  7  9  10  
10  9  11  12  
2  13  14  3  
3  14  15  5  
5  15  16  7  
7  16  17  9  
9  17  18  11  
13  19  20  14  
14  20  21  15  
15  21  22  16  
16  22  23  17  
17  23  24  18  
19  25  26  20  
20  26  27  21  
21  27  28  22  
22  28  29  23  
23  29  30  24  
25  31  32  26  
26  32  33  27  
27  33  34  28  
28  34  35  29  
29  35  36  30  
31  37  38  32  
32  38  39  33  
33  39  40  34  
34  40  41  35  
35  41  42  36  
37  43  44  38  
38  44  45  39  
39  45  46  40  
40  46  47  41  
41  47  48  42  
43  49  50  44  
44  50  51  45  
45  51  52  46  
46  52  53  47  
47  53  54  48  
49  55  56  50  
50  56  57  51  
51  57  58  52  
52  58  59  53  
53  59  60  54  
55  61  62  56  
56  62  63  57  
57  63  64  58  
58  64  65  59  
59  65  66  60  
12  11  67  68  
68  67  69  70  
70  69  71  72  
72  71  73  74  
74  73  75  76  
11  18  77  67  
67  77  78  69  
69  78  79  71  
71  79  80  73  
73  80  81  75  
18  24  82  77  
77  82  83  78  
78  83  84  79  
79  84  85  80  
80  85  86  81  
24  30  87  82  
82  87  88  83  
83  88  89  84  
84  89  90  85  
85  90  91  86  
30  36  92  87  
87  92  93  88  
88  93  94  89  
89  94  95  90  
90  95  96  91  
36  42  97  92  
92  97  98  93  
93  98  99  94  
94  99  100  95  
95  100  101  96  
42  48  102  97  
97  102  103  98  
98  103  104  99  
99  104  105  100  
100  105  106  101  
48  54  107  102  
102  107  108  103  
103  108  109  104  
104  109  110  105  
105  110  111  106  
54  60  112  107  
107  112  113  108  
108  113  114  109  
109  114  115  110  
110  115  116  111  
60  66  117  112  
112  117  118  113  
113  118  119  114  
114  119  120  115  
115  120  121  116  
